      36
Step =        0, E =      0.00000000
   C        -2.9405630849         1.1160592806        -0.3258130963
   C        -4.5555985736         2.4643923694         0.6807561901
   H        -5.5528345958         1.9851642071         0.6241852249
   C        -4.1517862797         3.0836048753        -0.6536184403
   H        -5.0137543178         3.3714629804        -1.2720602732
   B        -1.9815252154        -0.0410584849        -0.5448107538
   N        -3.4150176227         1.9910198543        -1.2648176106
   N        -3.5061504482         1.4799423955         0.8664664843
   C        -3.1291657623         1.9651025297        -2.6748315865
   H        -2.1669566866         2.4393001805        -2.9357269705
   H        -3.1104681393         0.9236278436        -3.0256100319
   H        -3.9322088719         2.4962968036        -3.2060022348
   C        -3.3881970219         0.7494848001         2.0975300761
   H        -2.3835555807         0.3137029324         2.1639711402
   H        -3.5215638801         1.4409612703         2.9429723543
   H        -4.1347141524        -0.0598450213         2.1875121910
   N        -1.1122546210         0.1359903316        -1.6596015593
   N        -0.3511431130         0.2296795731        -2.4960061706
   H        -3.5109740233         3.9745036027        -0.5109652707
   H        -4.5660612128         3.1906602134         1.5059901158
  Si        -1.7238435335        -1.8407581142         0.3147120237
   C        -0.7012970385        -1.8862998380         1.9215297784
   C        -0.7777020066        -2.9236895458        -0.9263148716
   C        -3.3698616520        -2.7170657275         0.6872281348
   H        -0.4953526115        -2.9319732795         2.2067157187
   H         0.2653244072        -1.3754634132         1.7838052683
   H        -1.2139389590        -1.4112121966         2.7736288353
   H        -1.3308026174        -3.0211613542        -1.8744230810
   H         0.2109706053        -2.4952291946        -1.1586043100
   H        -0.6191979514        -3.9348036513        -0.5169795622
   H        -3.1878791718        -3.7406791263         1.0557433463
   H        -3.9567586005        -2.1875808465         1.4547924973
   H        -3.9894070843        -2.7841362497        -0.2213535562
   C         2.6458860429         0.0000000000         0.0000000000
   O         3.1777944684         0.0538150323         1.0323454236
   O         2.1139776175        -0.0538150323        -1.0323454236
