      36
Step =        0, E =     -7.60294754
   C        -4.2876953805        -0.3362265272         0.4580476600
   C        -4.3366680696        -2.2741863538         1.7208265931
   H        -3.2792503791        -2.4389430077         1.9720054552
   C        -4.6000572144        -2.6529500030         0.2578655079
   H        -3.9923604326        -3.4950177289        -0.0915403549
   B        -3.8905340866         1.1316499002         0.2109395112
   N        -4.2161627622        -1.3982170624        -0.4072427490
   N        -4.6036913068        -0.8280329097         1.7407384233
   C        -3.5670113297        -1.3650161962        -1.7032859971
   H        -2.8895798414        -0.5060814156        -1.7517033127
   H        -2.9576628412        -2.2673559885        -1.8361649692
   H        -4.2862761742        -1.2792294801        -2.5304725731
   C        -5.8849499246        -0.3794237286         2.3092866644
   H        -5.8146917830         0.6618070950         2.6418185043
   H        -6.7177241269        -0.4560386646         1.5872918174
   H        -6.1290470282        -1.0005720806         3.1785911229
   N        -2.9441408248         1.3822534275         1.2435926715
   N        -2.1704884252         1.4989580533         2.0856048711
   H        -5.6646347301        -2.8855922467         0.0853369908
   H        -4.9566193298        -2.8090204200         2.4459205581
   C        -4.3453123095         2.3542229754        -0.7482974341
   C        -5.0562089690         3.3474981292         0.2072675691
   C        -5.3617250720         1.9304876027        -1.8252619641
   C        -3.1322312406         3.0613691671        -1.4243602797
   H        -4.9286335881         1.2670295393        -2.5839906520
   H        -6.2406639688         1.4313889316        -1.3953370966
   H        -5.7208728062         2.8306433098        -2.3504245123
   H        -3.4077657939         3.4452206756        -2.4180810813
   H        -2.7846602547         3.9169491501        -0.8301315469
   H        -2.2741504623         2.3916388296        -1.5622719550
   H        -4.3638827077         3.7306432722         0.9688044069
   H        -5.4706204357         4.2109073756        -0.3359159591
   H        -5.8869463613         2.8592303799         0.7357725980
   C         0.1500322326        -1.4304375348        -0.2783219441
   O        -0.2435636996        -2.1424609662        -1.1324781041
   O         0.5531044816        -0.7283831192         0.5667942966
