      36
Step =        0, E =     -7.60269994
   C        -3.5063987596        -0.7349014181        -1.0043680507
   C        -3.0112988027        -1.0455598600        -3.2959251293
   H        -3.6083652350        -0.7955530627        -4.1853666269
   C        -3.4313099578        -2.3777616931        -2.6630384461
   H        -4.4657639447        -2.6308595348        -2.9397102758
   B        -3.9853891315        -0.2683445972         0.3705635203
   N        -3.3497903606        -2.1235901948        -1.2183429367
   N        -3.2855406815        -0.1002408556        -2.2114532515
   C        -2.3103109285        -2.8088055214        -0.4350942893
   H        -1.4364191881        -2.1618034560        -0.2614522581
   H        -2.6937626316        -3.1398156096         0.5366876170
   H        -1.9763353442        -3.6938763811        -0.9863416768
   C        -3.2067330174         1.3053590963        -2.5323061295
   H        -3.9149922015         1.5520933065        -3.3380917618
   H        -3.4405429123         1.9217501479        -1.6665005946
   H        -2.1886157787         1.5623499030        -2.8713076745
   N        -4.6106660443        -1.4091904366         0.9660290304
   N        -5.1361954946        -2.2960540722         1.4676873497
   H        -2.7877057570        -3.2111737788        -2.9593909095
   H        -1.9454199596        -1.0330492578        -3.5836585540
   C        -4.0019949957         1.0227464061         1.3756894142
   C        -3.3474506265         0.5818783052         2.7099200644
   C        -5.4501959184         1.4492552431         1.7103806491
   C        -3.2253180457         2.2294922404         0.8123987481
   H        -5.4446665034         2.2193816566         2.4983714030
   H        -5.9762764810         1.8610988368         0.8393294755
   H        -6.0421019561         0.6053714465         2.0908516028
   H        -2.3225761216         1.9327304022         0.2637836119
   H        -3.8496427557         2.8274669874         0.1340692897
   H        -2.9049643932         2.8965660367         1.6257325901
   H        -2.3092849137         0.2565479572         2.5878848528
   H        -3.3415657792         1.4212862327         3.4230062764
   H        -3.9014441464        -0.2395684796         3.1837867866
   C         0.2623618236         0.8673422245         1.5215045914
   O         0.0249833727         0.9600394408         2.6714785758
   O         0.5165377415         0.7784561468         0.3807331683
