      36
best bond-forming step 714
   C        -2.1190000000         3.0550000000        -0.0460000000
   C        -3.4420000000         4.1330000000         1.6740000000
   H        -2.8770000000         4.0730000000         2.6250000000
   C        -3.9740000000         2.6560000000         1.4710000000
   H        -4.2020000000         2.1440000000         2.4190000000
   B         1.0310000000         0.7150000000         0.6210000000
   N        -2.7970000000         2.1970000000         0.7930000000
   N        -2.6530000000         4.2690000000         0.4170000000
   C        -2.7030000000         0.7700000000         0.7220000000
   H        -2.0580000000         0.5100000000         1.5600000000
   H        -3.6640000000         0.2180000000         0.8060000000
   H        -2.2280000000         0.3420000000        -0.1750000000
   C        -2.0500000000         5.5580000000        -0.1120000000
   H        -2.9100000000         6.0580000000        -0.6100000000
   H        -1.7320000000         6.1840000000         0.7220000000
   H        -1.2770000000         5.3070000000        -0.8450000000
   N         3.3710000000        -1.0090000000        -3.5870000000
   N         3.1590000000        -0.5320000000        -4.5870000000
   H        -4.8570000000         2.5940000000         0.7710000000
   H        -4.2520000000         4.8770000000         1.7060000000
   C        -2.2740000000        -4.9710000000        -0.3840000000
   C        -1.5200000000        -5.7910000000         0.5940000000
   C        -2.1100000000        -4.4770000000        -1.7810000000
   C        -3.7560000000        -4.5940000000        -0.0110000000
   H        -1.1770000000        -4.4960000000        -2.3160000000
   H        -2.6020000000        -5.2590000000        -2.5520000000
   H        -2.6620000000        -3.5170000000        -1.9590000000
   H        -3.9640000000        -3.6290000000         0.5560000000
   H        -4.3410000000        -4.4710000000        -0.9470000000
   H        -4.1100000000        -5.4740000000         0.5370000000
   H        -2.3410000000        -6.5320000000         0.8880000000
   H        -0.6070000000        -6.3480000000         0.2350000000
   H        -1.2990000000        -5.1730000000         1.5280000000
   C         1.0110000000         0.5940000000        -0.8160000000
   S         0.6650000000         0.8000000000         2.2430000000
   S         0.0720000000        -0.5880000000        -1.4330000000
