      36
best product-like step 17
   C        -2.8170000000         0.8250000000        -0.3040000000
   C        -4.3710000000         2.3330000000         0.4270000000
   H        -5.4290000000         2.0070000000         0.3600000000
   C        -3.8390000000         2.7770000000        -0.9390000000
   H        -4.6440000000         3.0090000000        -1.6520000000
   B        -1.5700000000        -0.3020000000        -0.2230000000
   N        -3.0990000000         1.6290000000        -1.3580000000
   N        -3.5180000000         1.2290000000         0.7800000000
   C        -2.8290000000         1.3860000000        -2.7480000000
   H        -1.8470000000         1.7780000000        -3.0640000000
   H        -2.8500000000         0.3060000000        -2.9520000000
   H        -3.6230000000         1.8500000000        -3.3530000000
   C        -3.1090000000         1.0700000000         2.1520000000
   H        -2.2390000000         0.4020000000         2.2050000000
   H        -2.8000000000         2.0420000000         2.5820000000
   H        -3.9170000000         0.6360000000         2.7660000000
   N        -0.9660000000        -0.0850000000        -1.3220000000
   N        -0.0240000000         0.1170000000        -2.0440000000
   H        -3.1840000000         3.6700000000        -0.8480000000
   H        -4.3020000000         3.1280000000         1.1840000000
   C        -1.9020000000        -1.7110000000         0.3840000000
   C        -1.5700000000        -2.7940000000        -0.6360000000
   C        -3.2820000000        -2.0080000000         0.9270000000
   C        -0.8980000000        -1.8410000000         1.5000000000
   H        -3.2950000000        -3.0250000000         1.3170000000
   H        -3.6240000000        -1.3600000000         1.7620000000
   H        -4.0600000000        -2.0050000000         0.1610000000
   H         0.1140000000        -1.6430000000         1.1170000000
   H        -1.0910000000        -1.1280000000         2.3120000000
   H        -0.9140000000        -2.8580000000         1.9430000000
   H        -0.5760000000        -2.6530000000        -1.1030000000
   H        -1.6050000000        -3.7850000000        -0.1550000000
   H        -2.3160000000        -2.8270000000        -1.4430000000
   C         2.6340000000        -0.0270000000         0.0100000000
   S         3.1570000000         0.0630000000         1.3790000000
   S         1.8630000000        -0.0890000000        -1.3450000000
