      36
final step 1000
   C        -3.3420000000         3.1090000000         0.1540000000
   C        -3.1680000000         5.2340000000         1.3280000000
   H        -2.6950000000         6.2120000000         1.2420000000
   C        -2.0640000000         4.2290000000         1.8170000000
   H        -1.1610000000         4.5820000000         1.2850000000
   B         0.9000000000        -1.2610000000         0.5650000000
   N        -2.5060000000         2.9180000000         1.2940000000
   N        -3.5150000000         4.5290000000         0.0870000000
   C        -2.1710000000         1.5680000000         1.9960000000
   H        -1.1030000000         1.2690000000         2.1920000000
   H        -2.7460000000         1.5130000000         2.9320000000
   H        -2.6050000000         0.7790000000         1.3650000000
   C        -3.8140000000         5.4250000000        -1.0360000000
   H        -4.8700000000         5.7160000000        -0.8740000000
   H        -3.1960000000         6.3300000000        -0.9760000000
   H        -3.6520000000         4.8410000000        -1.9500000000
   N         3.5380000000        -0.5880000000        -2.0480000000
   N         4.3990000000        -0.1330000000        -1.5040000000
   H        -1.8720000000         4.2040000000         2.8890000000
   H        -4.0650000000         5.2700000000         1.9650000000
   C        -2.6110000000        -5.2450000000        -1.1760000000
   C        -2.7570000000        -5.9890000000         0.2420000000
   C        -1.2220000000        -4.9580000000        -1.5240000000
   C        -3.9910000000        -5.1270000000        -1.9170000000
   H        -0.8490000000        -5.4910000000        -2.4590000000
   H        -1.1860000000        -3.8600000000        -1.7290000000
   H        -0.5830000000        -4.8820000000        -0.7070000000
   H        -3.9400000000        -4.3090000000        -2.6790000000
   H        -4.2810000000        -6.1300000000        -2.3710000000
   H        -4.8290000000        -4.9220000000        -1.1980000000
   H        -3.2970000000        -5.2610000000         0.9040000000
   H        -3.4680000000        -6.8140000000         0.3100000000
   H        -1.7860000000        -6.3220000000         0.6800000000
   C        -0.1720000000        -0.9090000000        -0.4730000000
   S         2.5280000000         0.7940000000         1.2340000000
   S        -1.2530000000        -1.0210000000        -1.6580000000
