      36
best product-like step 953
   C        -2.4340000000         0.6510000000        -0.2390000000
   C        -3.7350000000         0.4170000000         1.7300000000
   H        -3.6290000000        -0.3780000000         2.4780000000
   C        -4.5840000000         0.0780000000         0.5130000000
   H        -5.0840000000        -0.8950000000         0.5500000000
   B        -1.1750000000         1.0080000000        -1.0150000000
   N        -3.6140000000         0.1260000000        -0.6450000000
   N        -2.4440000000         0.7200000000         1.1150000000
   C        -3.7550000000        -0.6310000000        -1.8890000000
   H        -3.8840000000         0.0400000000        -2.7330000000
   H        -2.8390000000        -1.2080000000        -2.0630000000
   H        -4.5840000000        -1.3340000000        -1.8080000000
   C        -1.4600000000         1.1710000000         2.0430000000
   H        -0.4860000000         1.2370000000         1.5810000000
   H        -1.7300000000         2.1450000000         2.4800000000
   H        -1.4060000000         0.4310000000         2.8720000000
   N        -0.1970000000        -0.1330000000        -0.8660000000
   N         0.3550000000        -1.0080000000        -1.3850000000
   H        -5.3470000000         0.8510000000         0.3220000000
   H        -4.1180000000         1.3100000000         2.2600000000
   C        -0.4060000000         2.1630000000        -1.7180000000
   C        -0.0970000000         2.3370000000        -3.2130000000
   C         1.0340000000         1.9240000000        -1.4000000000
   C        -0.7290000000         3.4050000000        -0.8590000000
   H         1.5020000000         2.8480000000        -1.6860000000
   H         1.1280000000         1.6160000000        -0.3600000000
   H         1.3870000000         1.1730000000        -2.1060000000
   H        -1.7740000000         3.5050000000        -0.5220000000
   H        -0.1260000000         3.3100000000         0.0690000000
   H        -0.4140000000         4.3410000000        -1.3410000000
   H        -0.6820000000         3.0210000000        -3.8130000000
   H         0.9130000000         2.7380000000        -3.2130000000
   H         0.0040000000         1.3500000000        -3.6550000000
   C        -1.0270000000        -3.1100000000         1.4040000000
   O        -0.4520000000        -2.4920000000         0.5980000000
   O        -1.4710000000        -3.7620000000         2.2810000000
