      36
final step 1000
   C        -2.2560000000         0.3870000000         0.0440000000
   C        -3.8680000000         0.4520000000         1.8000000000
   H        -3.9300000000        -0.3460000000         2.5480000000
   C        -4.5880000000         0.1370000000         0.4420000000
   H        -5.2810000000        -0.7240000000         0.4720000000
   B        -0.8930000000         0.5960000000        -0.8590000000
   N        -3.4260000000        -0.1570000000        -0.4250000000
   N        -2.4350000000         0.6490000000         1.4010000000
   C        -3.5300000000        -0.8290000000        -1.7130000000
   H        -3.6980000000        -0.1080000000        -2.5120000000
   H        -2.5800000000        -1.3230000000        -1.9210000000
   H        -4.3250000000        -1.5800000000        -1.6900000000
   C        -1.3440000000         1.1260000000         2.2660000000
   H        -0.4160000000         0.9270000000         1.6950000000
   H        -1.4170000000         2.2000000000         2.4650000000
   H        -1.3290000000         0.5650000000         3.2080000000
   N         0.0140000000        -0.3800000000        -1.5190000000
   N         1.1170000000        -0.5140000000        -1.9550000000
   H        -5.1460000000         1.0130000000         0.0580000000
   H        -4.2750000000         1.3690000000         2.2540000000
   C        -0.3900000000         2.0900000000        -1.5520000000
   C        -0.4360000000         1.9030000000        -3.1240000000
   C         1.0870000000         2.2620000000        -1.3410000000
   C        -0.9000000000         3.4090000000        -0.8370000000
   H         1.2650000000         3.1420000000        -1.9570000000
   H         1.2230000000         2.3720000000        -0.2710000000
   H         1.6320000000         1.4500000000        -1.7840000000
   H        -1.9760000000         3.4430000000        -0.6790000000
   H        -0.4470000000         3.3750000000         0.1850000000
   H        -0.5440000000         4.3430000000        -1.3070000000
   H        -1.2010000000         2.4090000000        -3.6780000000
   H         0.5520000000         2.2720000000        -3.4330000000
   H        -0.3850000000         0.8420000000        -3.3370000000
   C        -1.3270000000        -2.8430000000         1.3430000000
   O        -0.7750000000        -2.2320000000         0.5100000000
   O        -2.0250000000        -3.3880000000         2.1120000000
