      36
best TS-like step 452
   C        -2.8870000000         0.9530000000        -0.3050000000
   C        -4.0730000000         2.6730000000         0.7880000000
   H        -5.0210000000         2.5440000000         1.3320000000
   C        -4.3280000000         2.7660000000        -0.7160000000
   H        -5.4170000000         2.7870000000        -0.9290000000
   B        -1.7480000000         0.0040000000        -0.7670000000
   N        -3.7350000000         1.5530000000        -1.2090000000
   N        -3.2100000000         1.5000000000         0.9390000000
   C        -3.8800000000         1.3160000000        -2.6140000000
   H        -3.1320000000         1.8680000000        -3.2310000000
   H        -3.8140000000         0.2550000000        -2.8650000000
   H        -4.8870000000         1.6260000000        -2.9060000000
   C        -3.2370000000         0.9450000000         2.2800000000
   H        -3.3940000000        -0.1390000000         2.3230000000
   H        -2.3470000000         1.2210000000         2.8790000000
   H        -4.1050000000         1.3760000000         2.7940000000
   N        -1.5560000000        -0.1640000000        -2.1650000000
   N        -1.3470000000        -0.4840000000        -3.2780000000
   H        -3.8580000000         3.6450000000        -1.1870000000
   H        -3.5890000000         3.5760000000         1.1870000000
   C        -0.9690000000        -1.0590000000         0.1780000000
   C         0.2360000000        -1.6810000000        -0.5230000000
   C        -1.9090000000        -2.2460000000         0.3000000000
   C        -0.7820000000        -0.4260000000         1.5680000000
   H        -1.4320000000        -3.0730000000         0.8420000000
   H        -2.8740000000        -1.9680000000         0.7720000000
   H        -2.1260000000        -2.5970000000        -0.7150000000
   H        -0.4450000000         0.6240000000         1.5440000000
   H        -1.7180000000        -0.4710000000         2.1090000000
   H        -0.0630000000        -0.9660000000         2.1870000000
   H         0.8260000000        -0.9760000000        -1.0910000000
   H         0.8400000000        -2.2540000000         0.1940000000
   H        -0.1130000000        -2.4440000000        -1.2200000000
   C         2.3160000000        -0.9960000000         0.6580000000
   O         1.9080000000        -0.4980000000         1.6240000000
   O         2.7290000000        -1.4640000000        -0.3300000000
