      36
best bond-forming step 916
   C        -2.4960000000         0.7550000000        -0.3560000000
   C        -3.7670000000         0.4710000000         1.5760000000
   H        -3.7350000000        -0.3560000000         2.2970000000
   C        -4.6260000000         0.1060000000         0.3600000000
   H        -4.9860000000        -0.9380000000         0.4130000000
   B        -1.1830000000         0.9710000000        -1.2040000000
   N        -3.7400000000         0.3490000000        -0.7530000000
   N        -2.4920000000         0.8330000000         1.0110000000
   C        -3.9560000000        -0.3040000000        -2.0310000000
   H        -4.3310000000         0.3980000000        -2.7880000000
   H        -3.0300000000        -0.7570000000        -2.4170000000
   H        -4.6770000000        -1.1180000000        -1.8770000000
   C        -1.5020000000         1.2210000000         1.9900000000
   H        -0.4600000000         1.1360000000         1.6370000000
   H        -1.7120000000         2.2260000000         2.3830000000
   H        -1.6070000000         0.5350000000         2.8270000000
   N        -0.6270000000        -0.2380000000        -0.8130000000
   N        -0.3440000000        -1.3280000000        -0.7520000000
   H        -5.4930000000         0.7720000000         0.2660000000
   H        -4.1800000000         1.3350000000         2.1240000000
   C        -0.3140000000         2.2590000000        -1.7790000000
   C         0.0620000000         2.5520000000        -3.2600000000
   C         0.9910000000         1.6670000000        -1.3200000000
   C        -0.6170000000         3.4120000000        -0.7850000000
   H         1.7160000000         2.4490000000        -1.2460000000
   H         0.7880000000         1.1350000000        -0.3970000000
   H         1.2910000000         1.0120000000        -2.1210000000
   H        -1.6710000000         3.5750000000        -0.5830000000
   H        -0.1510000000         3.1040000000         0.1770000000
   H        -0.1090000000         4.3480000000        -1.0740000000
   H        -0.5390000000         3.2810000000        -3.7820000000
   H         1.1210000000         2.8780000000        -3.1720000000
   H         0.1090000000         1.5680000000        -3.7650000000
   C        -0.5530000000        -3.2550000000         1.4900000000
   O        -0.1510000000        -2.5700000000         0.6520000000
   O        -0.9070000000        -3.9710000000         2.3320000000
