      32
best bond-forming step 56
   C        -2.5200000000         0.5300000000        -0.4090000000
   C        -4.1800000000         1.5390000000         0.9060000000
   H        -5.1220000000         0.9730000000         0.9230000000
   C        -4.0280000000         2.3240000000        -0.4120000000
   H        -4.9900000000         2.5180000000        -0.8960000000
   B        -1.3720000000        -0.3030000000        -0.7660000000
   N        -3.2130000000         1.3910000000        -1.2400000000
   N        -3.0230000000         0.6300000000         0.8530000000
   C        -3.1910000000         1.5420000000        -2.7070000000
   H        -2.4290000000         2.2450000000        -3.0640000000
   H        -3.0490000000         0.5830000000        -3.2100000000
   H        -4.1680000000         1.9280000000        -3.0070000000
   C        -2.3730000000         0.0850000000         2.0390000000
   H        -1.3310000000        -0.1310000000         1.8180000000
   H        -2.3810000000         0.8340000000         2.8380000000
   H        -2.8440000000        -0.8270000000         2.4250000000
   N        -0.9580000000         0.1510000000        -2.1190000000
   N        -0.1790000000         0.6010000000        -2.8520000000
   H        -3.5160000000         3.2860000000        -0.2740000000
   H        -4.1420000000         2.1630000000         1.8040000000
   P        -1.2730000000        -2.1800000000        -0.4660000000
   C        -0.4280000000        -2.3010000000         1.2010000000
   C        -3.0430000000        -2.5140000000         0.1110000000
   H        -3.4160000000        -1.8630000000         0.8980000000
   H        -3.7500000000        -2.4400000000        -0.7220000000
   H        -3.0730000000        -3.5420000000         0.5020000000
   H        -0.1740000000        -3.3510000000         1.3860000000
   H         0.4940000000        -1.7070000000         1.1840000000
   H        -1.0290000000        -2.0020000000         2.0520000000
   C         2.3750000000        -0.0620000000         0.1720000000
   O         2.8870000000         0.0480000000         1.2030000000
   O         1.6540000000        -0.1470000000        -0.7180000000
