      32
final step 1000
   C        -2.6840000000         0.1240000000        -0.7960000000
   C        -4.3920000000         1.5340000000        -0.0030000000
   H        -5.2650000000         1.4240000000         0.6640000000
   C        -4.6230000000         1.1310000000        -1.4470000000
   H        -5.3170000000         0.2670000000        -1.5060000000
   B        -1.3600000000        -0.5690000000        -0.8320000000
   N        -3.2880000000         0.7060000000        -1.8960000000
   N        -3.3570000000         0.5490000000         0.3520000000
   C        -3.3030000000         0.3970000000        -3.3160000000
   H        -3.2730000000         1.3330000000        -3.8920000000
   H        -2.4710000000        -0.2380000000        -3.6220000000
   H        -4.2480000000        -0.1060000000        -3.5560000000
   C        -2.8370000000         0.6510000000         1.6970000000
   H        -2.4240000000        -0.2930000000         2.0520000000
   H        -2.0420000000         1.4250000000         1.7680000000
   H        -3.6740000000         0.9700000000         2.3280000000
   N        -0.5840000000        -0.0250000000        -1.8170000000
   N         0.0010000000         0.2670000000        -2.7640000000
   H        -4.9970000000         1.9110000000        -2.1290000000
   H        -4.0070000000         2.5690000000         0.0860000000
   P        -0.3320000000        -1.9270000000         0.1360000000
   C        -1.6430000000        -3.3810000000         0.1460000000
   C         0.8120000000        -2.1800000000        -1.3370000000
   H         0.3570000000        -2.2500000000        -2.3320000000
   H         1.5050000000        -1.3210000000        -1.3660000000
   H         1.4070000000        -3.0950000000        -1.1850000000
   H        -2.4500000000        -3.1180000000        -0.5620000000
   H        -1.2050000000        -4.3030000000        -0.2550000000
   H        -2.0410000000        -3.5920000000         1.1470000000
   C         1.1590000000         1.2800000000         2.0100000000
   O         1.6450000000         1.5670000000         3.0310000000
   O         0.7280000000         0.7800000000         1.0380000000
