      32
best product-like step 61
   C        -2.5190000000         0.5400000000        -0.4050000000
   C        -4.1800000000         1.5210000000         0.9020000000
   H        -5.1300000000         0.9500000000         0.9110000000
   C        -4.0270000000         2.3040000000        -0.4150000000
   H        -4.9900000000         2.5040000000        -0.9050000000
   B        -1.3730000000        -0.2940000000        -0.7910000000
   N        -3.2150000000         1.3800000000        -1.2470000000
   N        -3.0230000000         0.6240000000         0.8550000000
   C        -3.1910000000         1.5350000000        -2.7180000000
   H        -2.4200000000         2.2460000000        -3.0690000000
   H        -3.0360000000         0.5700000000        -3.2270000000
   H        -4.1780000000         1.9060000000        -3.0280000000
   C        -2.3650000000         0.0860000000         2.0370000000
   H        -1.3140000000        -0.1260000000         1.8120000000
   H        -2.3730000000         0.8380000000         2.8410000000
   H        -2.8240000000        -0.8420000000         2.4190000000
   N        -0.9510000000         0.1600000000        -2.1520000000
   N        -0.1930000000         0.6190000000        -2.8750000000
   H        -3.5060000000         3.2700000000        -0.2640000000
   H        -4.1450000000         2.1440000000         1.8090000000
   P        -1.2550000000        -2.1760000000        -0.4680000000
   C        -0.4100000000        -2.2910000000         1.2110000000
   C        -3.0380000000        -2.4970000000         0.1140000000
   H        -3.4220000000        -1.8420000000         0.9000000000
   H        -3.7650000000        -2.4240000000        -0.7030000000
   H        -3.1020000000        -3.5230000000         0.5180000000
   H        -0.1340000000        -3.3420000000         1.4060000000
   H         0.5070000000        -1.6740000000         1.1960000000
   H        -1.0200000000        -1.9890000000         2.0590000000
   C         2.3440000000        -0.0700000000         0.2130000000
   O         2.8840000000         0.0490000000         1.2290000000
   O         1.6230000000        -0.1570000000        -0.6980000000
