      36
best bond-forming step 919
   C        -2.6930000000         0.5670000000        -0.0520000000
   C        -4.7540000000         0.8380000000         1.1610000000
   H        -5.3250000000         0.1530000000         1.8170000000
   C        -5.0460000000         0.6960000000        -0.3050000000
   H        -5.3520000000        -0.3210000000        -0.5960000000
   B        -1.2170000000        -0.1000000000        -0.5300000000
   N        -3.6880000000         1.0840000000        -0.9120000000
   N        -3.2690000000         0.6110000000         1.2180000000
   C        -3.5920000000         0.7520000000        -2.2970000000
   H        -2.7610000000         1.3290000000        -2.7360000000
   H        -3.4400000000        -0.3120000000        -2.5590000000
   H        -4.4970000000         1.0990000000        -2.7900000000
   C        -2.7980000000         1.2470000000         2.4430000000
   H        -3.5290000000         2.0010000000         2.7690000000
   H        -2.6520000000         0.4890000000         3.2370000000
   H        -1.8230000000         1.7130000000         2.2870000000
   N        -0.4650000000         0.4090000000        -1.5810000000
   N         0.1210000000         0.8380000000        -2.4820000000
   H        -5.7590000000         1.4190000000        -0.7130000000
   H        -5.0020000000         1.8810000000         1.4250000000
   C        -0.7650000000        -1.6800000000        -0.2250000000
   C         0.7210000000        -2.0550000000        -0.5410000000
   C        -1.8880000000        -2.5090000000        -0.8950000000
   C        -0.9930000000        -1.8760000000         1.2500000000
   H        -1.7540000000        -3.5750000000        -0.6270000000
   H        -2.9170000000        -2.2710000000        -0.5940000000
   H        -1.8120000000        -2.4560000000        -1.9940000000
   H        -0.2440000000        -1.3100000000         1.8170000000
   H        -2.0130000000        -1.5590000000         1.4980000000
   H        -0.9410000000        -2.9460000000         1.5310000000
   H         1.4170000000        -1.4840000000         0.0780000000
   H         0.9100000000        -3.1150000000        -0.2940000000
   H         0.9750000000        -1.8310000000        -1.6030000000
   C         1.3390000000         1.2640000000         0.0330000000
   O         2.4770000000         1.0480000000        -0.2090000000
   O         0.2730000000         1.3370000000         0.5460000000
