      36
final step 1000
   C        -2.6230000000         0.5740000000         0.0710000000
   C        -4.7920000000         0.5390000000         1.0730000000
   H        -5.2460000000        -0.2930000000         1.6210000000
   C        -4.9220000000         0.5480000000        -0.4850000000
   H        -5.2340000000        -0.4070000000        -0.9470000000
   B        -1.2190000000         0.2470000000        -0.2830000000
   N        -3.5450000000         0.7980000000        -0.9180000000
   N        -3.3220000000         0.4760000000         1.3060000000
   C        -3.3360000000         0.5320000000        -2.3550000000
   H        -2.2880000000         0.5230000000        -2.6550000000
   H        -3.7820000000        -0.4530000000        -2.5380000000
   H        -3.8980000000         1.2630000000        -2.9450000000
   C        -2.8180000000         0.8890000000         2.7040000000
   H        -3.6770000000         0.8250000000         3.3840000000
   H        -2.0500000000         0.2120000000         3.0970000000
   H        -2.4440000000         1.9260000000         2.6900000000
   N        -0.6820000000         0.5990000000        -1.6170000000
   N         0.1890000000         0.7520000000        -2.3690000000
   H        -5.6320000000         1.3390000000        -0.7940000000
   H        -5.1680000000         1.4740000000         1.5050000000
   C        -0.9340000000        -1.3640000000        -0.0300000000
   C         0.5320000000        -1.7430000000        -0.4040000000
   C        -1.6570000000        -2.2570000000        -1.0780000000
   C        -1.1060000000        -1.7820000000         1.4230000000
   H        -1.4010000000        -3.3010000000        -0.8460000000
   H        -2.7480000000        -2.1640000000        -1.1600000000
   H        -1.2490000000        -2.0180000000        -2.0670000000
   H        -0.4550000000        -1.2260000000         2.1180000000
   H        -2.1290000000        -1.6120000000         1.7840000000
   H        -0.8850000000        -2.8510000000         1.5440000000
   H         1.2440000000        -1.2570000000         0.2550000000
   H         0.7410000000        -2.8190000000        -0.3800000000
   H         0.7490000000        -1.4560000000        -1.4500000000
   C         1.3070000000         1.2270000000        -0.0690000000
   O         2.2120000000         0.6570000000        -0.5090000000
   O         0.4390000000         1.9080000000         0.3120000000
