      36
Step =        0, E =     -7.61078504
   C        -3.2581628627         0.6628366893         0.3697523926
   C        -2.5943419100         2.8510711642         0.9166140249
   H        -3.3976290663         3.5948171516         1.0505836464
   C        -2.3026135107         2.6014178775        -0.5765043626
   H        -2.9131577655         3.2471663587        -1.2262255356
   B        -4.0835013241        -0.6302052708         0.3648901641
   N        -2.6590234043         1.1927074714        -0.7581381911
   N        -3.0282063966         1.5395004404         1.4104086283
   C        -1.9795168355         0.4260108037        -1.7888924558
   H        -1.8841736361        -0.6187569021        -1.4833065511
   H        -2.5031656506         0.4509565600        -2.7552216594
   H        -0.9628603515         0.8202075866        -1.9305959681
   C        -3.6343630036         1.5401250259         2.7269893289
   H        -2.8955389627         1.9116950945         3.4495811175
   H        -4.5248163597         2.1881606972         2.7614306936
   H        -3.9242758500         0.5404450529         3.0467616940
   N        -4.2359028468        -1.2402766990         1.6313288237
   N        -4.4176471530        -1.7742232626         2.6374160557
   H        -1.2463076544         2.7774632328        -0.8204234904
   H        -1.7117780617         3.2024934596         1.4678227484
   C        -4.9179058868        -1.3340042069        -0.8575014562
   C        -4.1015569394        -2.4591183222        -1.5336133745
   C        -5.3472186939        -0.2767426680        -1.8968621003
   C        -6.2150654511        -1.9848785770        -0.3161742594
   H        -5.9071695321        -0.7569125983        -2.7141672399
   H        -6.0031339082         0.4791836839        -1.4435019676
   H        -4.5045450089         0.2552175040        -2.3461942167
   H        -6.0117692422        -2.7850239216         0.4071526268
   H        -6.8746249749        -1.2505621960         0.1659966244
   H        -6.7780557366        -2.4359531343        -1.1486395249
   H        -3.8830425748        -3.2676675133        -0.8225148511
   H        -4.6746952537        -2.8955364824        -2.3671987568
   H        -3.1461875440        -2.1123129860        -1.9398730517
   C         0.6171958194        -1.1153418268        -0.1377483844
   O         1.4386900179        -1.0384362242        -0.9791946365
   O        -0.2030903644        -1.1902947791         0.6939310599
