      36
Step =        0, E =     -7.60694937
   C        -3.3640651386         1.1703081354        -0.2278075346
   C        -2.6710625629         2.9616115750        -1.5710647216
   H        -2.3313311671         3.1141934455        -2.6002924776
   C        -1.5545241278         2.5841600833        -0.6015132841
   H        -0.8111523579         1.9399996817        -1.0937636854
   B        -4.1897414829         0.0280249043         0.3487207969
   N        -2.2956110980         1.8077192472         0.4081951160
   N        -3.5498259462         1.7831673678        -1.4709151291
   C        -2.3434260184         2.2859067473         1.7901964137
   H        -3.3558541390         2.5990781058         2.0833392416
   H        -1.9944565210         1.5331870202         2.5010123185
   H        -1.6815541849         3.1546637065         1.8709509957
   C        -3.9100013100         1.1060285035        -2.7108837527
   H        -3.1503012581         0.3713335710        -3.0207071635
   H        -4.8780730138         0.6043754783        -2.6523288310
   H        -3.9949733698         1.8681461861        -3.4938895864
   N        -5.2740737156        -0.3417772811        -0.5027139662
   N        -6.1555262405        -0.7035749710        -1.1438297719
   H        -1.0395936722         3.4383098757        -0.1540917347
   H        -3.2001013239         3.8694030402        -1.2363545214
   C        -4.1612794588        -0.8334966343         1.7456071491
   C        -2.7593404166        -0.8539627093         2.4249548543
   C        -4.5854402671        -2.3005468207         1.4822349820
   C        -5.2064814346        -0.2404278016         2.7249669082
   H        -4.5811221491        -2.8581055517         2.4320324522
   H        -5.6038500585        -2.3719097382         1.0766250749
   H        -3.9030691029        -2.8113190943         0.7912023085
   H        -6.2273291139        -0.3607893441         2.3358922041
   H        -5.1632204960        -0.7643231454         3.6931403697
   H        -5.0508884726         0.8283998907         2.9168877655
   H        -2.4896074074        -1.8758708170         2.7217776365
   H        -1.9524371491        -0.4846026729         1.7848360290
   H        -2.7498373481        -0.2465265927         3.3389208604
   C        -0.7426306004        -1.3795279826        -0.5353087916
   O        -1.3944713944        -2.3392404066        -0.3817567771
   O        -0.0620251325        -0.4306506986        -0.6925646851
