      36
best product-like step 68
   C        -2.3980000000         1.0940000000        -0.1550000000
   C        -4.4590000000         2.1340000000         0.6270000000
   H        -5.4150000000         1.5790000000         0.5550000000
   C        -4.0590000000         2.7160000000        -0.7080000000
   H        -4.9020000000         2.9520000000        -1.3670000000
   B        -0.9680000000         0.5780000000         0.0770000000
   N        -3.2460000000         1.5840000000        -1.2810000000
   N        -3.3220000000         1.2210000000         0.8750000000
   C        -3.0640000000         1.7710000000        -2.7640000000
   H        -2.1720000000         2.3460000000        -3.0570000000
   H        -3.0810000000         0.8320000000        -3.3200000000
   H        -3.9560000000         2.3220000000        -3.0970000000
   C        -3.1710000000         0.6060000000         2.1530000000
   H        -2.1660000000         0.1900000000         2.2300000000
   H        -3.2880000000         1.3310000000         2.9760000000
   H        -3.8930000000        -0.2110000000         2.3010000000
   N        -1.3940000000         0.1520000000        -2.2250000000
   N        -0.4610000000         0.3840000000        -2.8040000000
   H        -3.4460000000         3.6310000000        -0.5700000000
   H        -4.5230000000         2.8480000000         1.4660000000
  Si        -1.5730000000        -1.6560000000         0.3470000000
   C        -0.6030000000        -1.7750000000         2.0050000000
   C        -0.6520000000        -2.7040000000        -0.9670000000
   C        -3.3290000000        -2.3840000000         0.6170000000
   H        -0.2980000000        -2.7680000000         2.3760000000
   H         0.2750000000        -1.2050000000         1.7310000000
   H        -1.1030000000        -1.2050000000         2.8090000000
   H        -1.1600000000        -2.7420000000        -1.9540000000
   H         0.2620000000        -2.1210000000        -1.0790000000
   H        -0.3870000000        -3.7180000000        -0.6420000000
   H        -3.0940000000        -3.3930000000         1.0020000000
   H        -3.9630000000        -1.8890000000         1.3630000000
   H        -3.9100000000        -2.5080000000        -0.3050000000
   C         2.1840000000        -0.0160000000         0.1590000000
   O         1.6680000000         0.0570000000         1.2150000000
   O         1.9690000000        -0.0630000000        -1.0070000000
