      36
best TS-like step 71
   C        -2.3720000000         1.1210000000        -0.1460000000
   C        -4.4510000000         2.1120000000         0.6250000000
   H        -5.4000000000         1.5560000000         0.5530000000
   C        -4.0480000000         2.6880000000        -0.7130000000
   H        -4.8930000000         2.9140000000        -1.3680000000
   B        -1.0080000000         0.6110000000         0.0860000000
   N        -3.2340000000         1.5690000000        -1.2780000000
   N        -3.3140000000         1.2120000000         0.8830000000
   C        -3.0640000000         1.7660000000        -2.7590000000
   H        -2.1790000000         2.3400000000        -3.0510000000
   H        -3.0870000000         0.8360000000        -3.3200000000
   H        -3.9560000000         2.3190000000        -3.0700000000
   C        -3.1620000000         0.6050000000         2.1610000000
   H        -2.1620000000         0.1890000000         2.2370000000
   H        -3.2730000000         1.3350000000         2.9790000000
   H        -3.8820000000        -0.2070000000         2.3160000000
   N        -1.4120000000         0.1420000000        -2.2730000000
   N        -0.4650000000         0.3900000000        -2.8350000000
   H        -3.4470000000         3.6050000000        -0.5770000000
   H        -4.5230000000         2.8370000000         1.4510000000
  Si        -1.5600000000        -1.6440000000         0.3510000000
   C        -0.5940000000        -1.7810000000         2.0180000000
   C        -0.6440000000        -2.6980000000        -0.9720000000
   C        -3.3240000000        -2.3680000000         0.6100000000
   H        -0.2870000000        -2.7680000000         2.3860000000
   H         0.2810000000        -1.2210000000         1.7610000000
   H        -1.0940000000        -1.2050000000         2.8140000000
   H        -1.1550000000        -2.7280000000        -1.9600000000
   H         0.2750000000        -2.1350000000        -1.0920000000
   H        -0.3790000000        -3.7060000000        -0.6430000000
   H        -3.1010000000        -3.3750000000         0.9900000000
   H        -3.9590000000        -1.8810000000         1.3540000000
   H        -3.8980000000        -2.4870000000        -0.3110000000
   C         2.1250000000        -0.0130000000         0.1760000000
   O         1.6240000000         0.0530000000         1.2260000000
   O         2.0000000000        -0.0660000000        -0.9980000000
