      36
final step 1000
   C        -2.5660000000         0.9760000000         0.6690000000
   C        -3.3180000000         2.7200000000         1.9560000000
   H        -3.9840000000         3.0130000000         2.7810000000
   C        -3.9090000000         2.7570000000         0.4530000000
   H        -4.9630000000         2.4810000000         0.3890000000
   B        -2.2380000000        -0.3060000000         0.0540000000
   N        -3.2240000000         1.7500000000        -0.3070000000
   N        -2.9560000000         1.2070000000         2.0330000000
   C        -4.1650000000         1.2660000000        -1.3180000000
   H        -3.9700000000         0.3060000000        -1.8200000000
   H        -5.1770000000         1.0750000000        -0.8690000000
   H        -4.2380000000         2.0820000000        -2.0500000000
   C        -2.0860000000         0.7630000000         3.0460000000
   H        -1.9890000000        -0.3370000000         2.9140000000
   H        -1.0730000000         1.1820000000         3.1430000000
   H        -2.6540000000         0.9050000000         3.9630000000
   N         3.5830000000        -0.6220000000         0.4550000000
   N         4.4880000000        -0.2460000000        -0.0900000000
   H        -3.7760000000         3.7700000000         0.0760000000
   H        -2.4930000000         3.4400000000         1.9190000000
  Si        -2.4680000000        -2.2880000000        -0.2590000000
   C        -1.1630000000        -3.2680000000         0.8550000000
   C        -2.2640000000        -3.1570000000        -2.0700000000
   C        -4.3440000000        -2.9070000000        -0.2740000000
   H        -1.3440000000        -4.3580000000         0.9310000000
   H        -0.2900000000        -3.0660000000         0.2130000000
   H        -0.9560000000        -2.9180000000         1.8910000000
   H        -2.7830000000        -2.7670000000        -2.9670000000
   H        -1.2130000000        -3.2180000000        -2.4350000000
   H        -2.6530000000        -4.1530000000        -1.7930000000
   H        -4.1550000000        -3.7990000000         0.3550000000
   H        -5.1440000000        -2.2780000000         0.1490000000
   H        -4.5620000000        -3.3130000000        -1.2740000000
   C         0.2620000000         1.8940000000        -2.5840000000
   O        -0.9390000000         1.7780000000        -2.5880000000
   O         1.4340000000         1.8370000000        -2.6690000000
