      36
best bond-forming step 745
   C        -3.5340000000         0.9530000000         0.8070000000
   C        -4.0170000000         3.0460000000         1.5860000000
   H        -4.5960000000         3.7370000000         2.2190000000
   C        -4.9570000000         2.7500000000         0.4590000000
   H        -5.9310000000         2.6170000000         0.9630000000
   B        -2.7040000000        -0.2720000000         0.5210000000
   N        -4.4810000000         1.5750000000        -0.3420000000
   N        -3.6520000000         1.7210000000         2.0240000000
   C        -3.6820000000         1.8180000000        -1.6250000000
   H        -3.3860000000         0.7750000000        -1.8220000000
   H        -4.1920000000         2.3250000000        -2.4560000000
   H        -2.7440000000         2.3430000000        -1.3490000000
   C        -2.6420000000         1.5660000000         3.0180000000
   H        -2.6900000000         0.5000000000         3.2610000000
   H        -1.6350000000         1.8540000000         2.6820000000
   H        -3.0110000000         2.1250000000         3.8870000000
   N         3.9890000000        -1.6710000000        -2.2600000000
   N         3.1050000000        -1.0060000000        -2.0920000000
   H        -5.1350000000         3.6440000000        -0.1840000000
   H        -3.0910000000         3.5260000000         1.2110000000
  Si        -1.9990000000        -2.2420000000         0.1320000000
   C        -0.9840000000        -3.5290000000         1.1270000000
   C        -1.0730000000        -2.2640000000        -1.4750000000
   C        -3.8310000000        -2.9700000000        -0.2240000000
   H        -1.2150000000        -4.3650000000         0.4570000000
   H         0.0690000000        -3.2380000000         1.1220000000
   H        -1.2830000000        -3.8690000000         2.1220000000
   H        -0.3460000000        -3.1010000000        -1.4140000000
   H        -1.6280000000        -2.4550000000        -2.4140000000
   H        -0.4470000000        -1.3550000000        -1.5190000000
   H        -3.7430000000        -3.7860000000        -0.9880000000
   H        -4.3810000000        -3.3740000000         0.6360000000
   H        -4.5120000000        -2.2540000000        -0.7060000000
   C         1.2760000000         1.4210000000        -1.4870000000
   O         0.3840000000         0.8820000000        -0.9030000000
   O         1.8620000000         2.1240000000        -2.2900000000
