      37
best product-like step 905
   C        -2.3370000000        -0.4390000000         0.4070000000
   C        -3.1990000000        -0.3340000000         2.5990000000
   H        -3.5620000000        -1.2910000000         2.9990000000
   C        -4.2350000000         0.2800000000         1.6390000000
   H        -5.2470000000        -0.1000000000         1.8360000000
   B        -1.3060000000        -0.1510000000        -0.7470000000
   N        -3.7140000000        -0.2120000000         0.3420000000
   N        -1.9580000000        -0.5750000000         1.7490000000
   C        -4.5770000000        -0.2060000000        -0.8440000000
   H        -4.2670000000        -1.0100000000        -1.5160000000
   H        -5.6060000000        -0.3650000000        -0.5110000000
   H        -4.5580000000         0.7430000000        -1.4060000000
   C        -0.7210000000         0.1120000000         2.2050000000
   H        -0.7150000000         0.0820000000         3.2980000000
   H         0.1810000000        -0.3680000000         1.8200000000
   H        -0.7040000000         1.1630000000         1.8930000000
   N        -1.6590000000         0.6050000000        -1.8980000000
   N        -1.8360000000         1.0810000000        -2.9160000000
   H        -4.2400000000         1.3810000000         1.7340000000
   H        -2.9360000000         0.3320000000         3.4290000000
   C         0.0380000000        -1.0850000000        -1.2180000000
   C         0.2850000000        -1.2540000000        -2.7500000000
   C        -0.1140000000        -2.5290000000        -0.7510000000
   C         1.2650000000        -0.4440000000        -0.5750000000
   H         0.6990000000        -3.0940000000        -1.2110000000
   H        -0.0280000000        -2.6000000000         0.3380000000
   H        -1.0870000000        -2.9640000000        -1.0520000000
   H         1.2470000000         0.6500000000        -0.5600000000
   H         1.3520000000        -0.7730000000         0.4560000000
   H         2.1710000000        -0.8040000000        -1.0760000000
   H         0.5510000000        -0.3240000000        -3.2560000000
   H         1.1310000000        -1.9340000000        -2.8960000000
   H        -0.5780000000        -1.6600000000        -3.2600000000
   C        -1.8810000000         2.8640000000        -0.1010000000
   H        -1.6560000000         2.9660000000         0.9950000000
   H        -2.2600000000         1.8680000000        -0.4190000000
   O        -1.7300000000         3.7730000000        -0.8840000000
