      37
best bond-forming step 170
   C        -2.5030000000         0.7610000000        -0.1510000000
   C        -4.3630000000         1.5820000000         0.8990000000
   H        -5.0230000000         0.6990000000         0.9590000000
   C        -4.3360000000         2.1400000000        -0.5140000000
   H        -5.3100000000         2.0400000000        -1.0100000000
   B        -1.2950000000        -0.1380000000        -0.3840000000
   N        -3.3160000000         1.2890000000        -1.1280000000
   N        -2.9760000000         1.1860000000         1.0820000000
   C        -3.2090000000         1.2230000000        -2.5790000000
   H        -2.5660000000         2.0020000000        -3.0080000000
   H        -2.7950000000         0.2480000000        -2.8640000000
   H        -4.2190000000         1.2670000000        -3.0020000000
   C        -2.5410000000         0.8300000000         2.4380000000
   H        -1.5940000000         0.2850000000         2.3740000000
   H        -2.3730000000         1.7440000000         3.0120000000
   H        -3.2650000000         0.1790000000         2.9480000000
   N        -0.7410000000         0.0770000000        -1.7450000000
   N        -0.0510000000         0.3660000000        -2.6030000000
   H        -4.0360000000         3.1970000000        -0.5170000000
   H        -4.6870000000         2.3130000000         1.6420000000
   C        -1.1880000000        -1.7210000000         0.2000000000
   C        -0.7420000000        -2.6620000000        -0.9540000000
   C        -2.6390000000        -2.0400000000         0.5860000000
   C        -0.3690000000        -2.1740000000         1.4550000000
   H        -2.8140000000        -3.1270000000         0.7060000000
   H        -2.9050000000        -1.6000000000         1.5460000000
   H        -3.4010000000        -1.7370000000        -0.1320000000
   H         0.7090000000        -2.2820000000         1.2320000000
   H        -0.4950000000        -1.5190000000         2.3150000000
   H        -0.7400000000        -3.1710000000         1.7350000000
   H         0.3040000000        -2.4200000000        -1.2350000000
   H        -0.8260000000        -3.6970000000        -0.5940000000
   H        -1.4190000000        -2.5380000000        -1.8180000000
   C         1.2540000000         1.2540000000        -0.0220000000
   H         0.8310000000         2.0680000000        -0.6430000000
   H         1.6470000000         1.5480000000         0.9720000000
   O         1.2490000000         0.0980000000        -0.4150000000
