      37
best TS-like step 1000
   C        -2.1820000000        -0.1830000000         0.3960000000
   C        -2.8330000000        -0.9050000000         2.5220000000
   H        -2.8540000000        -1.9980000000         2.4120000000
   C        -4.0570000000        -0.2800000000         1.8070000000
   H        -4.9620000000        -0.8840000000         1.9320000000
   B        -1.3270000000        -0.0940000000        -0.9010000000
   N        -3.5660000000        -0.2360000000         0.4320000000
   N        -1.7310000000        -0.3220000000         1.7290000000
   C        -4.4260000000        -0.2110000000        -0.7260000000
   H        -4.0300000000        -0.8830000000        -1.5040000000
   H        -5.4340000000        -0.5400000000        -0.4310000000
   H        -4.5300000000         0.7900000000        -1.1520000000
   C        -0.5370000000         0.2600000000         2.3410000000
   H        -0.6650000000         0.2030000000         3.4240000000
   H         0.3770000000        -0.2770000000         2.0730000000
   H        -0.4120000000         1.3190000000         2.0810000000
   N        -1.9550000000         0.3740000000        -2.1310000000
   N        -2.1480000000         1.0880000000        -3.0130000000
   H        -4.2570000000         0.7410000000         2.1690000000
   H        -2.7550000000        -0.6510000000         3.5800000000
   C         0.0350000000        -0.8010000000        -1.2790000000
   C         0.2250000000        -0.9390000000        -2.7900000000
   C         0.0760000000        -2.1980000000        -0.5680000000
   C         1.2100000000         0.0800000000        -0.8790000000
   H         1.1300000000        -2.5330000000        -0.4810000000
   H        -0.3890000000        -2.1040000000         0.4190000000
   H        -0.4960000000        -2.9070000000        -1.1570000000
   H         1.1200000000         1.0620000000        -1.3560000000
   H         1.2370000000         0.2740000000         0.2150000000
   H         2.1520000000        -0.4070000000        -1.1770000000
   H         0.2970000000         0.0220000000        -3.3410000000
   H         1.2120000000        -1.4200000000        -2.9500000000
   H        -0.5300000000        -1.5610000000        -3.3270000000
   C        -2.6410000000         2.6740000000        -0.0530000000
   H        -2.4130000000         1.9750000000         0.7820000000
   H        -3.7350000000         2.8900000000        -0.2130000000
   O        -1.7830000000         3.2570000000        -0.6950000000
