      36
best product-like step 661
   C        -2.7340000000         0.9540000000        -0.3640000000
   C        -4.1950000000         2.6780000000         0.4110000000
   H        -4.7930000000         2.4310000000         1.3100000000
   C        -4.7690000000         2.0360000000        -0.8470000000
   H        -5.7830000000         1.6800000000        -0.6100000000
   B        -1.3700000000         0.1640000000        -0.8350000000
   N        -3.9000000000         0.8630000000        -1.1200000000
   N        -2.8720000000         2.0110000000         0.4950000000
   C        -4.6330000000        -0.3690000000        -1.4380000000
   H        -3.9860000000        -1.2260000000        -1.2770000000
   H        -5.4920000000        -0.4840000000        -0.7570000000
   H        -4.9740000000        -0.3800000000        -2.4760000000
   C        -1.8640000000         2.3740000000         1.4650000000
   H        -2.3410000000         2.9310000000         2.2740000000
   H        -1.3730000000         1.4950000000         1.8980000000
   H        -1.1050000000         3.0010000000         0.9780000000
   N        -1.0430000000         0.9490000000        -2.0070000000
   N        -1.0080000000         1.6890000000        -2.8790000000
   H        -4.8430000000         2.6750000000        -1.7410000000
   H        -4.1110000000         3.7730000000         0.3510000000
  Si        -1.0470000000        -2.0130000000        -0.3180000000
   C        -0.7740000000        -2.5220000000         1.5250000000
   C         0.7350000000        -2.5820000000        -0.7200000000
   C        -2.1950000000        -3.2590000000        -1.3880000000
   H        -0.5250000000        -3.5960000000         1.6250000000
   H         0.1290000000        -1.9560000000         1.8390000000
   H        -1.5630000000        -2.2080000000         2.2080000000
   H         1.1680000000        -2.1730000000        -1.6540000000
   H         1.4260000000        -2.4190000000         0.1120000000
   H         0.6830000000        -3.6770000000        -0.7940000000
   H        -2.4150000000        -4.1700000000        -0.8190000000
   H        -3.1240000000        -2.8710000000        -1.8120000000
   H        -1.5640000000        -3.5380000000        -2.2390000000
   C         1.3470000000         0.3630000000         1.5360000000
   O         1.8610000000        -0.3110000000         0.7200000000
   O         0.7670000000         1.0790000000         2.2450000000
