      36
best bond-forming step 96
   C        -2.5130000000         1.1500000000        -0.2510000000
   C        -4.4830000000         2.0360000000         0.6240000000
   H        -5.3980000000         1.4270000000         0.5660000000
   C        -4.0910000000         2.6260000000        -0.7330000000
   H        -4.9680000000         2.8850000000        -1.3250000000
   B        -1.2840000000         0.3100000000        -0.4910000000
   N        -3.3060000000         1.5840000000        -1.3010000000
   N        -3.3100000000         1.2230000000         0.8880000000
   C        -3.0580000000         1.6890000000        -2.7170000000
   H        -2.1830000000         2.2950000000        -2.9700000000
   H        -2.9750000000         0.7230000000        -3.2040000000
   H        -3.9280000000         2.2000000000        -3.1260000000
   C        -3.0990000000         0.6210000000         2.1810000000
   H        -2.0850000000         0.2310000000         2.2270000000
   H        -3.1930000000         1.3800000000         2.9690000000
   H        -3.8020000000        -0.1900000000         2.3940000000
   N        -0.9610000000         0.3190000000        -1.9320000000
   N        -0.5430000000         0.3670000000        -2.9890000000
   H        -3.4730000000         3.5320000000        -0.6060000000
   H        -4.6400000000         2.8310000000         1.3640000000
  Si        -1.4940000000        -1.6190000000         0.3780000000
   C        -0.5370000000        -1.7470000000         2.0470000000
   C        -0.5800000000        -2.6500000000        -0.9680000000
   C        -3.3040000000        -2.3260000000         0.5810000000
   H        -0.2300000000        -2.7580000000         2.3450000000
   H         0.3680000000        -1.1640000000         2.0020000000
   H        -1.0910000000        -1.3540000000         2.9120000000
   H        -1.1400000000        -2.7050000000        -1.9240000000
   H         0.3790000000        -2.1930000000        -1.2110000000
   H        -0.3720000000        -3.6850000000        -0.6730000000
   H        -3.1730000000        -3.3510000000         0.9400000000
   H        -3.9440000000        -1.8240000000         1.3070000000
   H        -3.8500000000        -2.3810000000        -0.3640000000
   C         1.8520000000         0.0200000000         0.2240000000
   O         1.7130000000         0.0820000000         1.3920000000
   O         1.8980000000        -0.0650000000        -0.9710000000
