      36
final step 1000
   C        -3.0070000000         0.8390000000        -0.7650000000
   C        -4.7480000000         2.4580000000        -0.4400000000
   H        -4.9570000000         2.8160000000         0.5870000000
   C        -5.3880000000         1.0690000000        -0.5740000000
   H        -5.8900000000         0.8120000000         0.3740000000
   B        -1.6010000000         0.2380000000        -0.7020000000
   N        -4.2340000000         0.1590000000        -0.8500000000
   N        -3.2990000000         2.1790000000        -0.6770000000
   C        -4.5380000000        -1.3110000000        -0.7080000000
   H        -4.2270000000        -1.8720000000        -1.5910000000
   H        -4.0910000000        -1.7780000000         0.1910000000
   H        -5.6250000000        -1.3700000000        -0.5820000000
   C        -2.2830000000         3.1380000000        -0.1640000000
   H        -2.6770000000         3.6540000000         0.7230000000
   H        -1.3820000000         2.6120000000         0.1640000000
   H        -2.0330000000         3.8860000000        -0.9230000000
   N        -0.7120000000         0.9730000000        -1.5670000000
   N         0.1400000000         1.6070000000        -1.9800000000
   H        -6.1470000000         0.9920000000        -1.3750000000
   H        -5.1570000000         3.2090000000        -1.1370000000
  Si        -0.9830000000        -1.7050000000        -0.5750000000
   C        -1.1570000000        -2.8920000000         0.9080000000
   C         0.8890000000        -1.4610000000        -0.7500000000
   C        -1.4640000000        -2.9610000000        -1.9830000000
   H        -0.7740000000        -2.4570000000         1.8550000000
   H        -2.1800000000        -3.2310000000         1.1000000000
   H        -0.5450000000        -3.7720000000         0.5840000000
   H         1.4710000000        -2.1830000000        -0.1510000000
   H         1.1410000000        -1.7150000000        -1.7800000000
   H         1.2540000000        -0.4260000000        -0.5930000000
   H        -1.3140000000        -2.5810000000        -3.0040000000
   H        -0.8960000000        -3.8880000000        -1.8350000000
   H        -2.5320000000        -3.2040000000        -1.8290000000
   C         1.5010000000         0.4620000000         2.5300000000
   O         0.4790000000         1.0610000000         2.5460000000
   O         2.5260000000        -0.1280000000         2.4770000000
