      36
best TS-like step 200
   C        -2.6150000000         1.1740000000        -0.5530000000
   C        -4.4970000000         1.6930000000         0.7800000000
   H        -5.1350000000         0.7880000000         0.8670000000
   C        -4.6300000000         2.4220000000        -0.5690000000
   H        -5.6070000000         2.2920000000        -1.0580000000
   B        -1.5550000000         0.1580000000        -1.0150000000
   N        -3.5360000000         1.8650000000        -1.3660000000
   N        -3.0480000000         1.3720000000         0.7610000000
   C        -3.5790000000         1.8500000000        -2.8310000000
   H        -2.6500000000         2.2660000000        -3.2690000000
   H        -3.7540000000         0.8510000000        -3.2600000000
   H        -4.4060000000         2.5000000000        -3.1590000000
   C        -2.4690000000         1.0250000000         2.0590000000
   H        -1.4270000000         0.7070000000         1.9990000000
   H        -2.5290000000         1.9050000000         2.7290000000
   H        -3.0430000000         0.2050000000         2.5390000000
   N        -1.3640000000        -0.0040000000        -2.4730000000
   N        -0.8500000000         0.2100000000        -3.4780000000
   H        -4.4870000000         3.5140000000        -0.4110000000
   H        -4.7300000000         2.3740000000         1.6120000000
  Si        -0.9680000000        -1.5290000000         0.2480000000
   C        -0.7380000000        -2.2230000000         2.1040000000
   C        -0.1950000000        -2.8600000000        -0.9190000000
   C        -2.8240000000        -1.9880000000         0.2690000000
   H        -0.7460000000        -3.3320000000         2.0190000000
   H         0.1340000000        -1.9480000000         2.6810000000
   H        -1.6560000000        -1.9630000000         2.6710000000
   H        -0.7830000000        -2.9490000000        -1.8660000000
   H         0.8540000000        -2.8020000000        -1.1970000000
   H        -0.3730000000        -3.8110000000        -0.3880000000
   H        -2.9140000000        -3.0480000000         0.5940000000
   H        -3.3880000000        -1.4010000000         1.0160000000
   H        -3.3770000000        -1.9020000000        -0.6810000000
   C         1.7620000000         0.1630000000         0.9410000000
   O         0.8130000000         0.4020000000         1.6320000000
   O         2.6500000000        -0.1690000000         0.2330000000
