      44
final step 1000
   C        -2.3000000000         0.0510000000         0.1820000000
   C        -3.9530000000         0.7830000000         1.6720000000
   H        -4.5930000000        -0.1210000000         1.6250000000
   C        -4.1380000000         1.4860000000         0.2870000000
   H        -5.1600000000         1.3760000000        -0.1070000000
   B        -1.0440000000        -0.8960000000        -0.2810000000
   N        -3.2070000000         0.8040000000        -0.5750000000
   N        -2.6030000000         0.3330000000         1.5100000000
   C        -2.8050000000         1.3120000000        -1.9640000000
   H        -3.3890000000         2.2300000000        -2.1290000000
   H        -1.7430000000         1.5170000000        -2.0710000000
   H        -3.0000000000         0.5390000000        -2.7060000000
   C        -2.2130000000        -0.7030000000         2.5020000000
   H        -3.0740000000        -0.7950000000         3.1790000000
   H        -2.0610000000        -1.6610000000         1.9950000000
   H        -1.3440000000        -0.4110000000         3.0860000000
   N        -1.0990000000        -0.6060000000        -1.7690000000
   N        -1.1170000000        -0.5570000000        -2.9560000000
   H        -3.9020000000         2.5650000000         0.3630000000
   H        -4.0990000000         1.3280000000         2.6020000000
   C        -0.2760000000        -2.0950000000         0.5810000000
   C         0.5110000000        -1.8190000000         1.8700000000
   C         0.7040000000        -2.4010000000        -0.5640000000
   C        -1.5500000000        -3.2070000000         0.4720000000
   H         1.1660000000        -3.3770000000        -0.3030000000
   H         0.1220000000        -2.7080000000        -1.4220000000
   H         1.4790000000        -1.7080000000        -0.8980000000
   H        -2.2020000000        -2.6630000000        -0.2360000000
   H        -1.3810000000        -4.2300000000         0.0740000000
   H        -2.2700000000        -3.4750000000         1.3600000000
   H         0.1430000000        -0.9360000000         2.4000000000
   H         0.2470000000        -2.5990000000         2.6070000000
   H         1.6250000000        -1.7050000000         1.8520000000
   C         0.6260000000         2.5130000000        -1.5720000000
   C         0.1950000000         3.4630000000        -2.7070000000
   H         0.8550000000         4.3950000000        -2.6200000000
   H         0.7670000000         3.0470000000        -3.5620000000
   H        -0.8430000000         3.8320000000        -2.6980000000
   N         0.0420000000         1.8320000000        -0.6470000000
   H         1.7680000000         2.6160000000        -1.5620000000
   C         0.8190000000         1.5590000000         0.4930000000
   H         0.6210000000         0.5430000000         0.8610000000
   H         1.9150000000         1.6170000000         0.3730000000
   H         0.4370000000         2.2320000000         1.3150000000
