      44
best product-like step 931
   C        -2.1660000000         0.2490000000         0.1480000000
   C        -3.6950000000         1.0350000000         1.6560000000
   H        -4.5070000000         0.2920000000         1.7580000000
   C        -3.8790000000         1.7540000000         0.3020000000
   H        -4.8850000000         1.5970000000        -0.1050000000
   B        -1.1960000000        -0.8170000000        -0.4980000000
   N        -2.8280000000         1.2080000000        -0.5770000000
   N        -2.4120000000         0.3860000000         1.5400000000
   C        -3.1850000000         1.1640000000        -1.9870000000
   H        -3.9810000000         1.9090000000        -2.1720000000
   H        -2.2710000000         1.4210000000        -2.5360000000
   H        -3.6440000000         0.2020000000        -2.2690000000
   C        -2.1650000000        -0.4160000000         2.7880000000
   H        -3.0900000000        -0.3030000000         3.3710000000
   H        -2.0490000000        -1.4940000000         2.6440000000
   H        -1.3310000000        -0.0220000000         3.3840000000
   N        -0.7660000000        -0.6270000000        -1.8640000000
   N        -0.7580000000        -0.8340000000        -3.0270000000
   H        -3.7650000000         2.8410000000         0.4350000000
   H        -3.7180000000         1.6650000000         2.5420000000
   C        -0.6690000000        -2.1660000000         0.1660000000
   C         0.1810000000        -1.8250000000         1.3580000000
   C         0.5570000000        -2.7200000000        -0.7220000000
   C        -1.5660000000        -3.4670000000         0.6490000000
   H         0.8140000000        -3.5690000000        -0.0680000000
   H         0.2100000000        -3.2280000000        -1.6230000000
   H         1.5120000000        -2.1940000000        -0.8820000000
   H        -2.5460000000        -2.9650000000         0.7830000000
   H        -1.5870000000        -4.2970000000        -0.0490000000
   H        -1.1730000000        -3.6650000000         1.7060000000
   H        -0.4590000000        -1.4900000000         2.1570000000
   H         0.4720000000        -2.8540000000         1.6440000000
   H         1.0610000000        -1.1790000000         1.2870000000
   C         0.7710000000         2.6810000000        -1.1730000000
   C         0.2020000000         3.1370000000        -2.5080000000
   H         0.7250000000         4.0530000000        -2.8290000000
   H         0.0500000000         2.2680000000        -3.1890000000
   H        -0.8830000000         3.3480000000        -2.5100000000
   N        -0.0680000000         2.0330000000        -0.4800000000
   H         1.8630000000         2.8130000000        -0.8040000000
   C         0.3560000000         1.2920000000         0.5770000000
   H         0.4080000000         0.2810000000         0.2140000000
   H         1.3490000000         1.5820000000         1.0240000000
   H        -0.4140000000         1.2750000000         1.3660000000
