      44
best bond-forming step 87
   C        -2.2660000000         0.9330000000        -0.2410000000
   C        -4.2490000000         1.8540000000         0.4660000000
   H        -5.1990000000         1.2820000000         0.4280000000
   C        -3.8240000000         2.3310000000        -0.9260000000
   H        -4.6900000000         2.5010000000        -1.5800000000
   B        -1.1590000000         0.1130000000        -0.1300000000
   N        -3.0080000000         1.2480000000        -1.3520000000
   N        -3.1310000000         1.0330000000         0.8370000000
   C        -2.7290000000         1.0940000000        -2.7550000000
   H        -1.9080000000         1.7470000000        -3.1220000000
   H        -2.4780000000         0.0490000000        -2.9980000000
   H        -3.6570000000         1.3740000000        -3.2830000000
   C        -2.8490000000         0.9500000000         2.2230000000
   H        -1.9560000000         0.3440000000         2.3930000000
   H        -2.7040000000         1.9560000000         2.6720000000
   H        -3.6920000000         0.4650000000         2.7480000000
   N        -0.2140000000        -0.0640000000        -1.5630000000
   N         0.2610000000         0.3780000000        -2.5400000000
   H        -3.2390000000         3.2820000000        -0.8530000000
   H        -4.3870000000         2.7110000000         1.1540000000
   C        -1.5180000000        -1.6960000000         0.5910000000
   C        -1.3170000000        -2.7100000000        -0.6580000000
   C        -3.1220000000        -1.7260000000         0.7040000000
   C        -1.1630000000        -2.2770000000         2.1440000000
   H        -3.5300000000        -2.7530000000         0.7680000000
   H        -3.4730000000        -1.2070000000         1.5990000000
   H        -3.5930000000        -1.2300000000        -0.1580000000
   H        -0.4350000000        -3.0530000000         2.3420000000
   H        -0.8420000000        -1.4080000000         2.7610000000
   H        -2.1530000000        -2.5770000000         2.5420000000
   H        -0.3480000000        -2.7060000000        -1.1800000000
   H        -1.4970000000        -3.7420000000        -0.3080000000
   H        -2.0940000000        -2.4840000000        -1.4010000000
   C         1.6910000000         0.7720000000         0.1120000000
   C         2.4700000000         1.9940000000        -0.5800000000
   H         1.8830000000         2.5190000000        -1.3590000000
   H         2.8670000000         2.6750000000         0.1840000000
   H         3.2790000000         1.4480000000        -1.0950000000
   N         1.3490000000        -0.4260000000        -0.3640000000
   H         1.7330000000         0.8320000000         1.2210000000
   C         1.6030000000        -1.4960000000         0.4820000000
   H         2.0340000000        -1.2410000000         1.5130000000
   H         0.6180000000        -1.9510000000         0.6920000000
   H         2.2120000000        -2.2740000000        -0.0290000000
