      44
best TS-like step 357
   C        -2.2710000000         0.5710000000        -0.2860000000
   C        -3.4950000000         2.2580000000         0.7660000000
   H        -4.0810000000         2.4620000000         1.6790000000
   C        -4.3470000000         1.7740000000        -0.3890000000
   H        -5.3260000000         1.4560000000         0.0100000000
   B        -1.0930000000        -0.4480000000        -0.4840000000
   N        -3.5490000000         0.6920000000        -1.0090000000
   N        -2.5250000000         1.1660000000         0.9620000000
   C        -3.4100000000         0.8030000000        -2.4590000000
   H        -3.3560000000        -0.1830000000        -2.9300000000
   H        -4.1630000000         1.4370000000        -2.9530000000
   H        -2.4380000000         1.3210000000        -2.5540000000
   C        -1.4390000000         1.5160000000         1.8530000000
   H        -0.6850000000         0.7450000000         2.0450000000
   H        -0.9840000000         2.4090000000         1.4570000000
   H        -1.9190000000         1.8810000000         2.7710000000
   N        -0.4220000000        -0.5020000000        -1.9710000000
   N         0.3610000000        -1.1980000000        -2.4040000000
   H        -4.4920000000         2.6470000000        -1.0620000000
   H        -2.9450000000         3.1910000000         0.5010000000
   C        -1.6510000000        -2.0160000000        -0.1900000000
   C        -0.5030000000        -2.9910000000        -0.6150000000
   C        -3.1900000000        -2.0830000000        -0.4490000000
   C        -1.7910000000        -2.2230000000         1.3960000000
   H        -3.3990000000        -3.1650000000        -0.3240000000
   H        -3.7440000000        -1.4550000000         0.2580000000
   H        -3.5340000000        -1.7410000000        -1.4280000000
   H        -2.4250000000        -1.4890000000         1.8810000000
   H        -2.2090000000        -3.2210000000         1.5900000000
   H        -0.8050000000        -2.1210000000         1.8310000000
   H         0.4590000000        -2.6260000000        -0.2360000000
   H        -0.7040000000        -3.9680000000        -0.1350000000
   H        -0.3270000000        -3.1250000000        -1.6940000000
   C         1.4370000000         1.7020000000         0.2330000000
   C         0.1120000000         2.5270000000        -0.2250000000
   H        -0.7240000000         1.9430000000        -0.6100000000
   H        -0.1280000000         3.2900000000         0.5480000000
   H         0.4300000000         3.2570000000        -0.9910000000
   N         1.5300000000         0.4760000000         0.6700000000
   H         2.1930000000         2.4970000000         0.0900000000
   C         2.9140000000        -0.1840000000         1.0210000000
   H         3.3580000000        -0.8130000000         0.2010000000
   H         3.6690000000         0.6170000000         1.3040000000
   H         2.7220000000        -0.8230000000         1.9020000000
