      34
Step =        0, E =      0.00000000
   C        -1.9981481949        -0.9299718620         0.0650724488
   C        -1.5862570160        -3.0967003040         0.8044745705
   H        -2.4701061460        -3.7402036977         0.6317296640
   C        -1.7879541496        -2.1853235757         2.0017076589
   H        -2.4523337800        -2.6117012674         2.7665856096
   B        -2.1918839698         0.2593533823        -0.8491135617
   N        -2.3677786441        -0.9930504659         1.3945525640
   N        -1.4406418376        -2.1351203171        -0.2803926004
   C        -2.3671686195         0.1899524313         2.2338835456
   H        -1.3383497383         0.5568890036         2.4108727928
   H        -2.9534838553         0.9942127937         1.7784650334
   H        -2.8235266653        -0.0669229310         3.2004983298
   C        -1.4036744917        -2.6280908130        -1.6418963927
   H        -2.2915700429        -2.2877175552        -2.2011410595
   H        -0.5071346370        -2.2900051907        -2.1830372711
   H        -1.3920929630        -3.7264375604        -1.6207584999
   N        -1.3039047703         0.2717440575        -1.9647192969
   N        -0.5700619523         0.3376986242        -2.8281101633
   C        -3.2022778554         1.4596769649        -0.7356014411
   C        -2.9057998693         2.7396223384        -1.2392335979
   C        -4.4745944238         1.2858323915        -0.1571127622
   C        -3.8216867247         3.7868033911        -1.1666568482
   H        -1.9301924054         2.9236840928        -1.6982239862
   C        -5.3901040406         2.3324539785        -0.0666339100
   H        -4.7535289133         0.3004248457         0.2278188237
   C        -5.0688624385         3.5911364688        -0.5737481564
   H        -3.5565874267         4.7671943416        -1.5691328457
   H        -6.3669194286         2.1606599727         0.3916267704
   H        -5.7857936578         4.4121012893        -0.5106408587
   H        -0.8195053291        -1.9373620538         2.4798217138
   H        -0.7005433445        -3.7408327738         0.8990437265
   C         2.6458860429         0.0000000000         0.0000000000
   O         3.1777944684         0.0538150323         1.0323454236
   O         2.1139776175        -0.0538150323        -1.0323454236
