      36
Step =        0, E =      0.00000000
   C        -2.6189514701         0.8624521658        -0.3227787412
   C        -3.9899394567         1.9906476082        -1.8508566079
   H        -4.0262500711         1.5793480864        -2.8747893413
   C        -2.7228105705         2.8158168017        -1.6100264634
   H        -2.2307808842         3.1153857434        -2.5470807924
   B        -2.0983636411        -0.1559877017         0.6703758947
   N        -1.8901507854         1.8832652088        -0.8701527885
   N        -3.8836428772         0.9259719837        -0.8620250311
   C        -0.4566213661         2.0072557661        -0.8406120924
   H        -0.0854570626         2.5731684690         0.0319118807
   H        -0.0107934839         1.0017486614        -0.8054704202
   H        -0.1192304625         2.5178064343        -1.7552430887
   C        -5.0725587289         0.4774320323        -0.1799413805
   H        -4.7839759469        -0.0711136647         0.7231017384
   H        -5.6967428503         1.3376181636         0.1249774752
   H        -5.6835649203        -0.1832207881        -0.8162909504
   N        -1.0818610006         0.4078471518         1.4932614803
   N        -0.3106257906         0.8493571333         2.2042717905
   H        -2.9250066391         3.7314846711        -1.0240439842
   H        -4.9074302368         2.5761063919        -1.6897125862
   C        -2.4337713839        -1.7276791631         0.9059659080
   C        -1.1053375664        -2.4840664033         1.1110940155
   C        -3.1149239578        -2.3365711462        -0.3312523118
   C        -3.3070506292        -1.9794309940         2.1492061332
   H        -3.2548630581        -3.4242416209        -0.1985121879
   H        -4.1075333138        -1.9051375464        -0.5251599369
   H        -2.5053964992        -2.1836143998        -1.2363917736
   H        -2.8354846169        -1.5668221333         3.0556675225
   H        -4.3037660699        -1.5179330745         2.0608328866
   H        -3.4631316999        -3.0611014888         2.3159036310
   H        -0.5528351179        -2.1156050718         1.9906389238
   H        -1.2898768742        -3.5618087453         1.2682275824
   H        -0.4455103852        -2.3783785308         0.2349036159
   C         2.6458860429         0.0000000000         0.0000000000
   O         2.4539882240         1.1438643245        -0.0794313451
   O         2.8377838619        -1.1438643245         0.0794313451
