      24
Step =        0, E =      0.00000000
   C        -2.6183863171        -0.2946599226         0.3890852199
   C        -3.5441680139         1.5251500841        -0.7140742060
   H        -4.5248822910         1.2102717970        -1.1243858975
   C        -2.3990974036         0.9699829451        -1.5436645986
   H        -2.6422944326         0.8735427303        -2.6111866373
   B        -2.4423203592        -1.2977826162         1.4869677564
   N        -2.2056955478        -0.3348536276        -0.9270264406
   N        -3.2828176507         0.8989261058         0.5698324561
   C        -1.0890259395        -1.1371423676        -1.3702153403
   H        -0.1600578654        -0.9007602011        -0.8182422923
   H        -1.3027214503        -2.2070848561        -1.2573438521
   H        -0.9239484694        -0.9447179828        -2.4390126743
   C        -4.2045290152         1.1113468623         1.6591178306
   H        -3.7120512586         0.8995820925         2.6164910832
   H        -4.5163258446         2.1652263728         1.6565408891
   H        -5.1028940587         0.4704869193         1.5798402173
   N        -1.7616225430        -2.5191626975         1.2274863577
   N        -1.2469283332        -3.5187768800         1.0898768041
   H        -1.4923191883         1.5992193727        -1.4415122934
   H        -3.5321363773         2.6215184403        -0.6355605942
   H        -2.8593845424        -1.1903125707         2.6069862124
   C         2.6458860429         0.0000000000         0.0000000000
   O         3.1777944684         0.0538150323         1.0323454236
   O         2.1139776175        -0.0538150323        -1.0323454236
