      36
Step =        0, E =      0.00000000
   C        -1.8771421365        -0.2018939103        -0.4658400806
   C        -1.3765541075        -1.9395787593        -1.9549062218
   H        -1.4331772146        -2.9650611833        -1.5498091695
   C        -0.0780825055        -1.2355668906        -1.5513498343
   H         0.6930835039        -1.9397517763        -1.2059048875
   B        -2.6353149878         0.7834346413         0.3995437391
   N        -0.5210350759        -0.3856420443        -0.4596499571
   N        -2.4074309398        -1.0892836513        -1.3744648196
   C         0.3908324698         0.0914190333         0.5464132689
   H         0.8007596885         1.0924210671         0.3244384619
   H        -0.1372656032         0.1488839396         1.5101830468
   H         1.2294893106        -0.6151810927         0.6381489289
   C        -3.6241547166        -0.8545168978        -2.1123095995
   H        -4.1289061973         0.0270373886        -1.7027277869
   H        -3.4040077026        -0.6604170125        -3.1783124293
   H        -4.3098853750        -1.7153445901        -2.0533126637
   N        -1.8422178129         1.9332363559         0.6775382270
   N        -1.2537146406         2.8891473181         0.8650714844
   H         0.3503173439        -0.6411880048        -2.3795368134
   H        -1.4973097210        -2.0010014418        -3.0467688737
   C        -4.1040601763         0.7306959524         1.0910791756
   C        -3.9792771652         1.2446391312         2.5399501894
   C        -4.6252260472        -0.7143270765         1.1667216276
   C        -5.1417269076         1.6141251873         0.3738327579
   H        -5.5803221176        -0.7514992770         1.7204721829
   H        -4.8103654494        -1.1515911746         0.1749898283
   H        -3.9082308069        -1.3688373219         1.6879999585
   H        -4.8015145858         2.6607833723         0.3185602857
   H        -5.3350435429         1.2788081478        -0.6578760148
   H        -6.1108086235         1.6048484216         0.9057678906
   H        -3.6191456864         2.2855256162         2.5784547007
   H        -4.9590717868         1.2181028422         3.0494328628
   H        -3.2777301018         0.6275736904         3.1241705344
   C         2.6458860429         0.0000000000         0.0000000000
   O         1.8267701304         0.0719428354        -0.8218473427
   O         3.4650019555        -0.0719428354         0.8218473427
