      36
best TS-like step 222
   C        -2.5690000000         1.0390000000        -0.2400000000
   C        -4.1350000000         2.3900000000         0.8930000000
   H        -5.1820000000         2.0580000000         1.0050000000
   C        -3.9220000000         2.8900000000        -0.5230000000
   H        -4.8320000000         3.2010000000        -1.0330000000
   B        -1.1230000000         0.4670000000        -0.6720000000
   N        -3.3870000000         1.6750000000        -1.1630000000
   N        -3.2310000000         1.2220000000         1.0020000000
   C        -2.9410000000         1.7420000000        -2.5330000000
   H        -2.0050000000         2.3660000000        -2.6080000000
   H        -2.6940000000         0.7590000000        -2.8930000000
   H        -3.7020000000         2.1570000000        -3.1670000000
   C        -3.6660000000         0.3420000000         2.1580000000
   H        -3.4190000000        -0.7040000000         2.0500000000
   H        -3.2490000000         0.6810000000         3.1200000000
   H        -4.7730000000         0.3490000000         2.2100000000
   N        -1.1320000000        -0.2070000000        -2.1110000000
   N        -1.1160000000        -0.9940000000        -2.9280000000
   H        -3.1640000000         3.6910000000        -0.5690000000
   H        -3.9280000000         3.1160000000         1.6750000000
   C        -0.4750000000        -0.7840000000         0.5050000000
   C         0.3040000000        -2.5820000000         0.4120000000
   C        -1.5020000000        -1.4520000000        -0.2900000000
   C        -0.8320000000        -0.2990000000         1.9510000000
   H        -1.7180000000        -2.4010000000         0.0510000000
   H        -2.3690000000        -0.8150000000        -0.3330000000
   H        -0.9260000000        -1.6880000000        -1.1460000000
   H        -1.8460000000        -0.0230000000         1.8690000000
   H        -0.6680000000        -1.1090000000         2.6580000000
   H        -0.1810000000         0.5220000000         2.2010000000
   H         1.2440000000        -2.5120000000         1.0110000000
   H        -0.4810000000        -3.1740000000         0.9170000000
   H         0.4800000000        -2.9320000000        -0.5930000000
   C         0.9850000000        -0.8970000000         0.0630000000
   O         1.3770000000        -0.6340000000         1.2050000000
   O         1.2030000000        -1.0590000000        -1.1620000000
