      36
best bond-forming step 607
   C        -2.2310000000         0.7780000000        -0.2530000000
   C        -3.9510000000         1.8360000000         0.4520000000
   H        -5.3500000000         1.5380000000         0.1830000000
   C        -3.7270000000         2.8560000000        -0.5720000000
   H        -4.4100000000         3.0360000000        -1.4300000000
   B        -1.0000000000        -0.0250000000         0.5080000000
   N        -2.2540000000         1.8970000000        -1.0350000000
   N        -2.9130000000         0.6400000000         0.7760000000
   C        -1.5540000000         2.4340000000        -2.2250000000
   H        -1.2320000000         3.4550000000        -1.7950000000
   H        -0.7580000000         1.7180000000        -2.4530000000
   H        -2.3470000000         2.6070000000        -2.9300000000
   C        -3.4410000000        -0.2340000000         1.8570000000
   H        -2.5500000000        -0.9880000000         2.1230000000
   H        -3.4770000000         0.0830000000         2.9410000000
   H        -4.5220000000        -0.6320000000         1.5700000000
   N        -1.3530000000         0.1880000000        -1.9880000000
   N        -1.5390000000        -2.0850000000        -2.0610000000
   H        -3.4240000000         3.8630000000        -0.1120000000
   H        -4.4690000000         2.3550000000         1.4630000000
   C         0.0950000000        -0.2620000000         0.5610000000
   C         1.6060000000        -0.8860000000         0.3370000000
   C        -0.0360000000         1.3910000000        -0.4020000000
   C        -0.1280000000         0.5660000000         2.5230000000
   H         1.2540000000         1.6690000000        -0.8730000000
   H        -0.2780000000         2.9260000000         0.7930000000
   H         1.6380000000         2.7980000000         0.6790000000
   H        -0.8950000000         1.3190000000         2.3330000000
   H        -0.6880000000        -0.0340000000         2.3970000000
   H         0.5840000000         0.8990000000         2.4500000000
   H         2.2000000000        -0.0310000000         1.1800000000
   H         0.8490000000        -1.9360000000         0.5980000000
   H         1.6190000000        -0.7870000000        -0.6100000000
   C        -0.9260000000        -2.0520000000        -1.1320000000
   O        -1.4850000000        -1.1070000000         0.4200000000
   O        -1.1520000000        -3.6410000000        -1.1510000000
