      36
final step 1000
   C        -2.1450000000         0.8620000000         0.0090000000
   C        -3.3550000000         2.0490000000         1.3500000000
   H        -4.4330000000         2.0210000000         1.8480000000
   C        -2.8950000000         3.2830000000         0.3140000000
   H        -4.0110000000         3.6300000000         0.1880000000
   B        -1.1890000000        -0.2200000000        -0.3480000000
   N        -2.4250000000         1.8640000000        -0.6480000000
   N        -2.6970000000         1.1140000000         1.2840000000
   C        -1.6250000000         2.7040000000        -1.6810000000
   H        -0.9330000000         3.6640000000        -1.5680000000
   H        -1.5130000000         1.8950000000        -2.4250000000
   H        -2.7370000000         2.9890000000        -2.4410000000
   C        -2.7980000000         0.0280000000         2.1700000000
   H        -2.2110000000        -0.7690000000         1.8500000000
   H        -2.0340000000         0.0580000000         3.2360000000
   H        -4.0230000000        -0.1450000000         2.5360000000
   N        -1.5410000000         0.1160000000        -2.3390000000
   N        -2.3450000000        -1.3850000000        -2.5610000000
   H        -2.4850000000         4.0790000000         0.7870000000
   H        -2.9930000000         2.6160000000         2.7480000000
   C         0.2460000000         0.0040000000        -0.1650000000
   C         1.0860000000        -0.9530000000        -0.9370000000
   C         1.0720000000         1.1460000000         0.2010000000
   C         0.5560000000         0.0080000000         1.7800000000
   H         1.1270000000         1.2730000000        -1.5450000000
   H         0.3720000000         1.8890000000        -0.2210000000
   H         2.0330000000         1.8100000000        -0.5800000000
   H         0.1830000000         0.9250000000         1.8630000000
   H         0.2590000000        -0.8910000000         1.8260000000
   H         1.9190000000        -0.0280000000         1.7830000000
   H         2.7290000000        -1.1080000000        -0.5920000000
   H         0.6880000000        -2.0270000000        -0.2500000000
   H         0.7860000000        -1.1840000000        -2.0130000000
   C        -1.9710000000        -2.1910000000        -1.0560000000
   O        -1.4700000000        -1.8980000000         0.2970000000
   O        -2.6250000000        -3.8400000000        -1.0250000000
