      25
Step =        0, E =      0.00000000
   C        -2.4783242278        -0.2681790255         0.0364098186
   C        -4.0276694208         1.4157147034         0.3766896447
   H        -5.0191748841         1.0677892031         0.0271208615
   C        -3.1324999748         1.8010313121        -0.7883097181
   H        -3.6928408857         2.1550251506        -1.6645505929
   B        -1.7428751280        -1.5806330111         0.2034912876
   N        -2.4481021923         0.5427929411        -1.0657139534
   N        -3.2862388837         0.3134575885         0.9744818761
   C        -1.3682075637         0.5378540300        -2.0328856983
   H        -0.3940198569         0.3858912148        -1.5384733699
   H        -1.5022638524        -0.2430265615        -2.7949954397
   H        -1.3555569250         1.5079414552        -2.5468483940
   C        -3.9318750746        -0.4194428575         2.0454256847
   H        -3.2055842503        -1.0220278054         2.6003310351
   H        -4.3811387079         0.3063902586         2.7369953063
   H        -4.7257555208        -1.0851507191         1.6599745459
   N        -1.2043387662        -2.1946800585        -0.9642988495
   N        -0.8041139160        -2.7218689539        -1.8815322407
   H        -2.4027366490         2.5799839351        -0.4970761744
   H        -4.1786424481         2.2317935322         1.0967685078
   C        -1.5414168460        -2.3680416580         1.5079076974
   N        -1.3861169709        -2.9426146742         2.5090881655
   C         2.6458860429         0.0000000000         0.0000000000
   O         3.1777944684         0.0538150323         1.0323454236
   O         2.1139776175        -0.0538150323        -1.0323454236
