      39
final step 2000
   C        -2.6750000000        -0.4610000000        -0.7480000000
   C        -4.9720000000        -0.6790000000        -1.1550000000
   H        -5.7100000000        -1.4610000000        -1.3350000000
   C        -4.3520000000        -0.1580000000        -2.4240000000
   H        -4.3810000000        -0.8250000000        -3.3120000000
   B        -1.4370000000        -0.2430000000         0.0360000000
   N        -2.9630000000         0.1260000000        -1.9490000000
   N        -3.8150000000        -1.1550000000        -0.3270000000
   C        -2.2180000000         0.7180000000        -3.0470000000
   H        -2.6980000000         1.6660000000        -3.3080000000
   H        -1.1770000000         0.9270000000        -2.8070000000
   H        -2.2290000000         0.0320000000        -3.9070000000
   C        -4.0840000000        -1.2450000000         1.0850000000
   H        -3.1500000000        -1.4290000000         1.6090000000
   H        -4.5190000000        -0.3090000000         1.5030000000
   H        -4.7770000000        -2.0760000000         1.2940000000
   N        -0.8020000000         0.8810000000        -0.5650000000
   N        -0.4120000000         1.8020000000        -1.1890000000
   H        -4.8500000000         0.7760000000        -2.7160000000
   H        -5.5070000000         0.1350000000        -0.6250000000
   C        -0.6470000000        -1.3450000000         1.1820000000
   C         0.8320000000        -1.0090000000         0.8590000000
   C        -0.9500000000        -2.8480000000         0.9250000000
   C        -0.8530000000        -1.0410000000         2.6570000000
   H        -0.3650000000        -3.4220000000         1.6710000000
   H        -2.0080000000        -3.1210000000         0.9640000000
   H        -0.6200000000        -3.1260000000        -0.0850000000
   H        -0.4330000000        -0.0720000000         2.9500000000
   H        -1.8920000000        -0.9620000000         2.9730000000
   H        -0.4040000000        -1.8640000000         3.2500000000
   H         1.0000000000         0.0610000000         0.7230000000
   H         1.5350000000        -1.2900000000         1.6710000000
   H         1.1410000000        -1.5790000000        -0.0260000000
   C         1.0500000000         3.1570000000         1.2580000000
   C         2.1790000000         3.8890000000         0.6400000000
   H         1.9100000000         4.1890000000        -0.3760000000
   H         2.4850000000         4.8220000000         1.1670000000
   H         3.0330000000         3.2140000000         0.7010000000
   N         0.3470000000         2.3550000000         1.7360000000
