      39
best bond-forming step 1354
   C        -2.9430000000        -0.0970000000        -0.5710000000
   C        -5.0480000000         0.8690000000        -1.0850000000
   H        -5.9010000000         1.2920000000        -0.5490000000
   C        -5.1050000000        -0.6570000000        -1.2970000000
   H        -5.5750000000        -1.1230000000        -0.4090000000
   B        -1.3330000000        -0.1000000000        -0.3490000000
   N        -3.7170000000        -0.9800000000        -1.3450000000
   N        -3.8390000000         0.9540000000        -0.2690000000
   C        -3.1980000000        -1.5610000000        -2.5780000000
   H        -3.2710000000        -0.8590000000        -3.4320000000
   H        -2.1350000000        -1.7550000000        -2.4510000000
   H        -3.7070000000        -2.4980000000        -2.8250000000
   C        -3.8450000000         2.0420000000         0.7100000000
   H        -3.0080000000         2.7330000000         0.5830000000
   H        -4.7540000000         2.6270000000         0.5300000000
   H        -3.8270000000         1.7040000000         1.7600000000
   N        -0.9830000000         1.3390000000        -0.2530000000
   N        -0.6160000000         2.3250000000         0.2460000000
   H        -5.6150000000        -1.0150000000        -2.1880000000
   H        -4.9540000000         1.4130000000        -2.0430000000
   C        -0.2040000000        -1.4330000000         0.1260000000
   C         0.9300000000        -1.6550000000        -0.8940000000
   C        -1.0850000000        -2.6960000000         0.2600000000
   C         0.3280000000        -1.1090000000         1.5600000000
   H        -0.5330000000        -3.5610000000         0.6580000000
   H        -1.8700000000        -2.5050000000         1.0000000000
   H        -1.5420000000        -2.9980000000        -0.6950000000
   H         1.1200000000        -0.3500000000         1.5380000000
   H        -0.4980000000        -0.7020000000         2.2020000000
   H         0.7160000000        -1.9720000000         2.0960000000
   H         1.5090000000        -0.7340000000        -1.0400000000
   H         1.5910000000        -2.4730000000        -0.5890000000
   H         0.4810000000        -1.9430000000        -1.8700000000
   C         1.8640000000         1.8310000000         1.4230000000
   C         1.3950000000         2.0380000000         2.8350000000
   H         0.4160000000         1.5550000000         2.9770000000
   H         2.1310000000         1.5840000000         3.5140000000
   H         1.2260000000         3.1100000000         3.0200000000
   N         1.9320000000         1.6670000000         0.2760000000
