      39
best product-like step 1330
   C        -2.9120000000        -0.0090000000        -0.6640000000
   C        -5.1240000000         0.8680000000        -1.1060000000
   H        -5.9340000000         1.2390000000        -0.4750000000
   C        -5.1970000000        -0.6470000000        -1.3010000000
   H        -5.7360000000        -1.2010000000        -0.5100000000
   B        -1.3090000000        -0.0730000000        -0.3840000000
   N        -3.7230000000        -0.9910000000        -1.2850000000
   N        -3.7820000000         1.0780000000        -0.4400000000
   C        -3.3840000000        -1.6290000000        -2.5200000000
   H        -3.5020000000        -0.9590000000        -3.4000000000
   H        -2.3720000000        -2.0190000000        -2.4930000000
   H        -4.0550000000        -2.4840000000        -2.6590000000
   C        -3.8210000000         1.9440000000         0.7580000000
   H        -2.8500000000         2.4030000000         0.9590000000
   H        -4.5520000000         2.7350000000         0.5790000000
   H        -4.1330000000         1.3510000000         1.6450000000
   N        -0.8480000000         1.3260000000        -0.2050000000
   N        -0.5900000000         2.3520000000         0.2360000000
   H        -5.6380000000        -0.9040000000        -2.2620000000
   H        -5.1280000000         1.4150000000        -2.0630000000
   C        -0.2890000000        -1.3300000000         0.1870000000
   C         0.8070000000        -1.6000000000        -0.8860000000
   C        -1.0600000000        -2.6920000000         0.2660000000
   C         0.4250000000        -1.0840000000         1.5820000000
   H        -0.3590000000        -3.4970000000         0.5120000000
   H        -1.9380000000        -2.6880000000         0.9380000000
   H        -1.4660000000        -2.9360000000        -0.7300000000
   H         1.2550000000        -0.3820000000         1.4330000000
   H        -0.2490000000        -0.7160000000         2.3900000000
   H         0.8870000000        -2.0220000000         1.8760000000
   H         1.4180000000        -0.7310000000        -1.1630000000
   H         1.4960000000        -2.3770000000        -0.5290000000
   H         0.3350000000        -1.9900000000        -1.8090000000
   C         1.8340000000         1.7600000000         1.4230000000
   C         1.4090000000         1.9180000000         2.8490000000
   H         0.4970000000         1.3150000000         2.9310000000
   H         2.1430000000         1.5640000000         3.5980000000
   H         1.2180000000         2.9740000000         3.0640000000
   N         2.0970000000         1.6830000000         0.2870000000
