      39
best TS-like step 1332
   C        -2.9160000000        -0.0190000000        -0.6560000000
   C        -5.1200000000         0.8700000000        -1.1060000000
   H        -5.9350000000         1.2430000000        -0.4800000000
   C        -5.1910000000        -0.6510000000        -1.3020000000
   H        -5.7170000000        -1.2050000000        -0.5050000000
   B        -1.3070000000        -0.0790000000        -0.3850000000
   N        -3.7230000000        -0.9880000000        -1.2900000000
   N        -3.7850000000         1.0670000000        -0.4260000000
   C        -3.3730000000        -1.6220000000        -2.5240000000
   H        -3.4830000000        -0.9490000000        -3.3980000000
   H        -2.3510000000        -1.9930000000        -2.4740000000
   H        -4.0300000000        -2.4860000000        -2.6700000000
   C        -3.8270000000         1.9540000000         0.7540000000
   H        -2.8600000000         2.4300000000         0.9210000000
   H        -4.5730000000         2.7330000000         0.5760000000
   H        -4.1050000000         1.3780000000         1.6600000000
   N        -0.8580000000         1.3300000000        -0.2110000000
   N        -0.5890000000         2.3540000000         0.2420000000
   H        -5.6430000000        -0.9130000000        -2.2590000000
   H        -5.1080000000         1.4220000000        -2.0560000000
   C        -0.2780000000        -1.3410000000         0.1810000000
   C         0.8180000000        -1.6040000000        -0.8870000000
   C        -1.0630000000        -2.6950000000         0.2680000000
   C         0.4180000000        -1.0850000000         1.5840000000
   H        -0.3680000000        -3.5050000000         0.5180000000
   H        -1.9330000000        -2.6660000000         0.9360000000
   H        -1.4670000000        -2.9320000000        -0.7290000000
   H         1.2440000000        -0.3790000000         1.4360000000
   H        -0.2670000000        -0.7120000000         2.3850000000
   H         0.8740000000        -2.0200000000         1.8990000000
   H         1.4310000000        -0.7320000000        -1.1540000000
   H         1.5020000000        -2.3850000000        -0.5340000000
   H         0.3340000000        -1.9910000000        -1.8060000000
   C         1.8360000000         1.7640000000         1.4240000000
   C         1.4040000000         1.9290000000         2.8490000000
   H         0.4950000000         1.3180000000         2.9300000000
   H         2.1310000000         1.5630000000         3.5930000000
   H         1.2230000000         2.9930000000         3.0620000000
   N         2.0830000000         1.6810000000         0.2800000000
