      44
best TS-like step 696
   C        -2.2310000000         0.1490000000        -0.0280000000
   C        -3.3840000000         2.0070000000         0.8150000000
   H        -4.2830000000         1.6900000000         1.3870000000
   C        -3.6510000000         1.8150000000        -0.6750000000
   H        -4.6440000000         2.1000000000        -1.0370000000
   B        -1.2210000000        -1.0520000000        -0.4350000000
   N        -3.4000000000         0.3540000000        -0.7620000000
   N        -2.2710000000         1.0250000000         1.0170000000
   C        -3.5100000000        -0.3800000000        -2.0000000000
   H        -3.3670000000        -1.4530000000        -1.8250000000
   H        -4.5160000000        -0.2450000000        -2.4030000000
   H        -2.7920000000        -0.0530000000        -2.7640000000
   C        -1.4430000000         1.0060000000         2.2180000000
   H        -0.4020000000         0.8710000000         1.9120000000
   H        -1.4730000000         1.9680000000         2.7480000000
   H        -1.7180000000         0.1740000000         2.8920000000
   N        -0.7060000000        -0.5420000000        -1.6440000000
   N        -0.5180000000         0.1410000000        -2.5780000000
   H        -2.8890000000         2.3540000000        -1.2780000000
   H        -3.0880000000         3.0040000000         1.1590000000
   C        -1.2950000000        -2.6410000000         0.0220000000
   C         0.1040000000        -3.4060000000        -0.0840000000
   C        -2.1850000000        -3.4630000000        -1.0040000000
   C        -1.9200000000        -2.5360000000         1.4380000000
   H        -2.0670000000        -4.5540000000        -0.9050000000
   H        -3.2660000000        -3.2760000000        -0.9350000000
   H        -1.8410000000        -3.2350000000        -2.0230000000
   H        -2.8570000000        -3.1570000000         1.6170000000
   H        -1.1650000000        -2.8090000000         2.2210000000
   H        -2.2140000000        -1.5530000000         1.6550000000
   H         0.9820000000        -2.7530000000         0.0160000000
   H         0.1270000000        -4.1640000000         0.7200000000
   H         0.1930000000        -3.9410000000        -1.0320000000
   C         1.0360000000         2.8660000000        -0.2080000000
   C        -0.0890000000         3.1590000000        -1.1280000000
   H        -1.0620000000         3.1830000000        -0.6240000000
   H         0.0390000000         4.1320000000        -1.6210000000
   H        -0.1260000000         2.4120000000        -1.9310000000
   N         1.0280000000         1.7350000000         0.3730000000
   H         1.8080000000         3.6400000000        -0.0350000000
   C         2.2810000000         1.6410000000         1.1600000000
   H         3.1670000000         1.5050000000         0.5200000000
   H         2.4310000000         2.5520000000         1.7360000000
   H         2.3110000000         0.7640000000         1.7900000000
