      44
best bond-forming step 166
   C        -2.4110000000         0.6970000000        -0.2370000000
   C        -4.2830000000         1.7710000000         0.4620000000
   H        -5.0120000000         0.9470000000         0.4660000000
   C        -4.0000000000         2.2110000000        -0.9730000000
   H        -4.9080000000         2.1590000000        -1.5800000000
   B        -1.2990000000        -0.3580000000        -0.1620000000
   N        -3.0080000000         1.2190000000        -1.3710000000
   N        -2.9830000000         1.2790000000         0.8590000000
   C        -2.7990000000         0.9890000000        -2.8000000000
   H        -2.1130000000         1.7080000000        -3.2460000000
   H        -2.4000000000        -0.0100000000        -2.9820000000
   H        -3.7700000000         1.0190000000        -3.2930000000
   C        -2.6150000000         1.0830000000         2.2600000000
   H        -1.6600000000         0.5470000000         2.2980000000
   H        -2.4610000000         2.0510000000         2.7400000000
   H        -3.3550000000         0.4910000000         2.8070000000
   N        -0.5560000000        -0.1170000000        -1.3650000000
   N         0.0690000000         0.2880000000        -2.2310000000
   H        -3.5880000000         3.2250000000        -1.0250000000
   H        -4.6510000000         2.5850000000         1.0860000000
   C        -1.6630000000        -1.8020000000         0.5290000000
   C        -1.1790000000        -2.9750000000        -0.4100000000
   C        -3.2110000000        -1.8610000000         0.3990000000
   C        -1.3100000000        -2.3290000000         1.9460000000
   H        -3.5470000000        -2.9000000000         0.5160000000
   H        -3.6730000000        -1.2870000000         1.2110000000
   H        -3.5960000000        -1.4970000000        -0.5560000000
   H        -1.7810000000        -3.3540000000         2.0140000000
   H        -0.2280000000        -2.4820000000         2.0590000000
   H        -1.6980000000        -1.7520000000         2.7650000000
   H        -0.1000000000        -3.1240000000        -0.5060000000
   H        -1.6060000000        -3.9040000000        -0.0030000000
   H        -1.5930000000        -2.8590000000        -1.4160000000
   C         1.9670000000         1.0980000000         0.2000000000
   C         2.0900000000         2.2350000000        -0.7220000000
   H         1.0960000000         2.5370000000        -1.0760000000
   H         2.5230000000         3.0850000000        -0.1790000000
   H         2.7140000000         2.0230000000        -1.5970000000
   N         2.0110000000        -0.0240000000        -0.3730000000
   H         1.9370000000         1.2220000000         1.2950000000
   C         1.9690000000        -1.1780000000         0.5020000000
   H         1.9500000000        -0.9600000000         1.5480000000
   H         1.1000000000        -1.7460000000         0.2380000000
   H         2.8450000000        -1.7830000000         0.2880000000
