      44
best product-like step 702
   C        -2.2390000000         0.1270000000         0.0000000000
   C        -3.4030000000         1.9880000000         0.8240000000
   H        -4.3030000000         1.6710000000         1.3870000000
   C        -3.6320000000         1.8090000000        -0.6700000000
   H        -4.6230000000         2.0940000000        -1.0480000000
   B        -1.2010000000        -1.0480000000        -0.4250000000
   N        -3.3910000000         0.3480000000        -0.7470000000
   N        -2.2910000000         1.0050000000         1.0380000000
   C        -3.5180000000        -0.3750000000        -1.9960000000
   H        -3.3560000000        -1.4400000000        -1.8190000000
   H        -4.5320000000        -0.2630000000        -2.3650000000
   H        -2.8100000000        -0.0360000000        -2.7630000000
   C        -1.4540000000         1.0080000000         2.2260000000
   H        -0.4040000000         0.9370000000         1.9110000000
   H        -1.5590000000         1.9590000000         2.7630000000
   H        -1.6820000000         0.1610000000         2.8820000000
   N        -0.7110000000        -0.5170000000        -1.6400000000
   N        -0.4970000000         0.1680000000        -2.5750000000
   H        -2.8830000000         2.3340000000        -1.2860000000
   H        -3.1180000000         2.9890000000         1.1690000000
   C        -1.2700000000        -2.6390000000         0.0050000000
   C         0.1390000000        -3.3940000000        -0.0550000000
   C        -2.1660000000        -3.4530000000        -0.9900000000
   C        -1.9310000000        -2.5740000000         1.4160000000
   H        -2.0480000000        -4.5390000000        -0.8670000000
   H        -3.2400000000        -3.2480000000        -0.8800000000
   H        -1.8670000000        -3.2250000000        -2.0270000000
   H        -2.8100000000        -3.1850000000         1.5440000000
   H        -1.2180000000        -2.8330000000         2.2210000000
   H        -2.2660000000        -1.5530000000         1.6690000000
   H         1.0020000000        -2.7280000000         0.0230000000
   H         0.1620000000        -4.1690000000         0.7240000000
   H         0.2380000000        -3.9140000000        -1.0260000000
   C         1.0150000000         2.8670000000        -0.2340000000
   C        -0.0830000000         3.1680000000        -1.1780000000
   H        -1.0780000000         3.2130000000        -0.7220000000
   H         0.0840000000         4.1510000000        -1.6270000000
   H        -0.1080000000         2.3990000000        -1.9650000000
   N         1.0190000000         1.7510000000         0.3490000000
   H         1.7640000000         3.6690000000        -0.0610000000
   C         2.2530000000         1.6290000000         1.1520000000
   H         3.2090000000         1.4650000000         0.5310000000
   H         2.4170000000         2.5640000000         1.7460000000
   H         2.1870000000         0.7540000000         1.8120000000
