      44
final step 1000
   C        -2.4710000000        -0.1120000000         0.1430000000
   C        -3.8130000000         1.2890000000         1.4880000000
   H        -4.4780000000         1.2890000000         2.3500000000
   C        -4.5020000000         1.0530000000         0.1660000000
   H        -5.1680000000         0.1760000000         0.2930000000
   B        -1.3280000000        -1.0210000000        -0.4150000000
   N        -3.3100000000         0.7300000000        -0.6360000000
   N        -2.9770000000         0.0730000000         1.4910000000
   C        -3.5450000000         0.4420000000        -2.0160000000
   H        -2.6100000000         0.1070000000        -2.4790000000
   H        -4.2950000000        -0.3590000000        -2.1540000000
   H        -3.8780000000         1.3500000000        -2.5320000000
   C        -2.3810000000        -0.1440000000         2.7970000000
   H        -3.1250000000         0.1730000000         3.5280000000
   H        -2.1160000000        -1.1720000000         3.0130000000
   H        -1.5160000000         0.5310000000         2.9550000000
   N        -0.4670000000        -0.5980000000        -1.5550000000
   N         0.0550000000        -0.5610000000        -2.5910000000
   H        -5.0510000000         1.8990000000        -0.2490000000
   H        -3.2330000000         2.2370000000         1.4570000000
   C        -0.6330000000        -2.3800000000         0.2370000000
   C         0.7430000000        -1.9420000000         0.8560000000
   C        -0.4010000000        -3.3110000000        -0.9730000000
   C        -1.3590000000        -3.0730000000         1.4250000000
   H         0.0820000000        -4.2620000000        -0.6910000000
   H        -1.3430000000        -3.5700000000        -1.4740000000
   H         0.2130000000        -2.8340000000        -1.7420000000
   H        -1.4420000000        -2.3420000000         2.2620000000
   H        -2.3490000000        -3.5030000000         1.2220000000
   H        -0.7250000000        -3.8530000000         1.8080000000
   H         0.6490000000        -0.9920000000         1.3980000000
   H         1.1870000000        -2.6580000000         1.5670000000
   H         1.4360000000        -1.7780000000         0.0300000000
   C         1.0140000000         3.2600000000        -1.3160000000
   C         0.5650000000         3.8950000000        -2.6510000000
   H         0.6360000000         4.9930000000        -2.5360000000
   H         1.2610000000         3.6890000000        -3.4870000000
   H        -0.4770000000         3.6660000000        -2.9000000000
   N         0.3810000000         2.3580000000        -0.6280000000
   H         1.9990000000         3.6530000000        -0.9740000000
   C         0.9720000000         1.8460000000         0.6080000000
   H         1.0790000000         0.7930000000         0.4330000000
   H         2.0080000000         2.2300000000         0.8940000000
   H         0.2780000000         2.0330000000         1.4610000000
