      37
best bond-forming step 73
   C        -2.5120000000         0.8890000000        -0.1570000000
   C        -4.4290000000         1.9800000000         0.6690000000
   H        -5.3830000000         1.4370000000         0.6670000000
   C        -4.0680000000         2.4970000000        -0.7160000000
   H        -4.9240000000         2.6610000000        -1.3740000000
   B        -0.5020000000        -0.0590000000         0.0730000000
   N        -3.2220000000         1.3710000000        -1.2130000000
   N        -3.2870000000         1.0600000000         0.9400000000
   C        -2.9720000000         1.2300000000        -2.6510000000
   H        -2.1340000000         1.8480000000        -2.9800000000
   H        -2.7780000000         0.1950000000        -2.9190000000
   H        -3.8810000000         1.5360000000        -3.1770000000
   C        -2.8970000000         0.8800000000         2.3200000000
   H        -2.0070000000         0.2630000000         2.4030000000
   H        -2.6840000000         1.8540000000         2.7880000000
   H        -3.7040000000         0.3730000000         2.8630000000
   N        -0.0910000000         0.0010000000        -1.7330000000
   N         0.3630000000         0.2460000000        -2.7940000000
   H        -3.4740000000         3.4220000000        -0.6450000000
   H        -4.4600000000         2.7620000000         1.4400000000
   C        -1.3290000000        -1.6690000000         0.3660000000
   C        -1.2360000000        -2.7700000000        -0.8310000000
   C        -2.9640000000        -1.7590000000         0.6440000000
   C        -0.5920000000        -2.0830000000         1.7060000000
   H        -3.2060000000        -2.8010000000         0.8750000000
   H        -3.3290000000        -1.1900000000         1.5010000000
   H        -3.5840000000        -1.4760000000        -0.2220000000
   H         0.4780000000        -2.1370000000         1.5420000000
   H        -0.7550000000        -1.2490000000         2.4070000000
   H        -0.9430000000        -2.9890000000         2.2130000000
   H        -0.2600000000        -2.7890000000        -1.2900000000
   H        -1.4690000000        -3.7610000000        -0.4340000000
   H        -1.9810000000        -2.5340000000        -1.5830000000
   C         1.1060000000         0.7240000000         0.3450000000
   H         1.2190000000         1.6200000000        -0.2610000000
   H         1.5300000000         0.6940000000         1.4750000000
   O         1.0890000000        -0.4310000000        -0.6620000000
