      37
best product-like step 68
   C        -2.5370000000         0.8590000000        -0.1660000000
   C        -4.4410000000         2.0190000000         0.6540000000
   H        -5.4130000000         1.4980000000         0.6510000000
   C        -4.0620000000         2.5380000000        -0.7270000000
   H        -4.9060000000         2.7100000000        -1.4080000000
   B        -0.4650000000        -0.0980000000         0.1130000000
   N        -3.2190000000         1.3810000000        -1.2190000000
   N        -3.3160000000         1.0520000000         0.9220000000
   C        -2.9730000000         1.2450000000        -2.6610000000
   H        -2.1110000000         1.8430000000        -2.9960000000
   H        -2.8040000000         0.1980000000        -2.9330000000
   H        -3.8790000000         1.5690000000        -3.1990000000
   C        -2.9170000000         0.8860000000         2.3070000000
   H        -2.0210000000         0.2730000000         2.3920000000
   H        -2.6910000000         1.8690000000         2.7610000000
   H        -3.7200000000         0.3880000000         2.8740000000
   N        -0.0960000000         0.0090000000        -1.6760000000
   N         0.3370000000         0.2200000000        -2.6870000000
   H        -3.4500000000         3.4570000000        -0.6510000000
   H        -4.4430000000         2.7860000000         1.4450000000
   C        -1.3990000000        -1.6710000000         0.3420000000
   C        -1.2720000000        -2.7890000000        -0.8330000000
   C        -3.0120000000        -1.7840000000         0.6710000000
   C        -0.6220000000        -2.0270000000         1.6710000000
   H        -3.2280000000        -2.8260000000         0.9510000000
   H        -3.3990000000        -1.1960000000         1.5250000000
   H        -3.6850000000        -1.5360000000        -0.1660000000
   H         0.4590000000        -2.0230000000         1.4850000000
   H        -0.8170000000        -1.1860000000         2.3690000000
   H        -0.9180000000        -2.9540000000         2.2170000000
   H        -0.2790000000        -2.7600000000        -1.2730000000
   H        -1.4770000000        -3.7830000000        -0.3900000000
   H        -2.0380000000        -2.5600000000        -1.5790000000
   C         1.2150000000         0.6630000000         0.2660000000
   H         1.2790000000         1.5900000000        -0.3270000000
   H         1.1940000000         0.6320000000         1.4110000000
   O         1.2470000000        -0.4210000000        -0.6770000000
