      37
best TS-like step 75
   C        -2.5010000000         0.9010000000        -0.1540000000
   C        -4.4240000000         1.9640000000         0.6750000000
   H        -5.3720000000         1.4120000000         0.6750000000
   C        -4.0700000000         2.4810000000        -0.7130000000
   H        -4.9330000000         2.6420000000        -1.3600000000
   B        -0.5240000000        -0.0430000000         0.0570000000
   N        -3.2240000000         1.3680000000        -1.2110000000
   N        -3.2760000000         1.0640000000         0.9470000000
   C        -2.9720000000         1.2250000000        -2.6470000000
   H        -2.1410000000         1.8510000000        -2.9760000000
   H        -2.7650000000         0.1910000000        -2.9120000000
   H        -3.8820000000         1.5240000000        -3.1690000000
   C        -2.8890000000         0.8780000000         2.3260000000
   H        -1.9990000000         0.2590000000         2.4070000000
   H        -2.6810000000         1.8470000000         2.7990000000
   H        -3.6980000000         0.3680000000         2.8610000000
   N        -0.0920000000        -0.0010000000        -1.7630000000
   N         0.3710000000         0.2570000000        -2.8340000000
   H        -3.4830000000         3.4080000000        -0.6450000000
   H        -4.4680000000         2.7520000000         1.4360000000
   C        -1.3020000000        -1.6680000000         0.3760000000
   C        -1.2210000000        -2.7610000000        -0.8280000000
   C        -2.9430000000        -1.7480000000         0.6340000000
   C        -0.5810000000        -2.1050000000         1.7190000000
   H        -3.1940000000        -2.7950000000         0.8430000000
   H        -3.2970000000        -1.1910000000         1.4880000000
   H        -3.5380000000        -1.4520000000        -0.2440000000
   H         0.4920000000        -2.1850000000         1.5640000000
   H        -0.7270000000        -1.2790000000         2.4240000000
   H        -0.9550000000        -3.0060000000         2.2070000000
   H        -0.2430000000        -2.8010000000        -1.3000000000
   H        -1.4660000000        -3.7540000000        -0.4490000000
   H        -1.9610000000        -2.5210000000        -1.5890000000
   C         1.0600000000         0.7460000000         0.3800000000
   H         1.2010000000         1.6390000000        -0.2250000000
   H         1.6620000000         0.7110000000         1.4570000000
   O         1.0340000000        -0.4370000000        -0.6530000000
