      37
final step 1000
   C        -2.7930000000         1.7940000000         0.2080000000
   C        -2.2130000000         0.6880000000         2.1640000000
   H        -1.5290000000         0.5240000000         3.0050000000
   C        -1.6360000000        -0.0450000000         0.9940000000
   H        -0.7830000000         0.6500000000         1.0180000000
   B        -3.4190000000         2.5130000000        -0.9790000000
   N        -2.6830000000         0.2590000000        -0.0920000000
   N        -2.4380000000         2.0700000000         1.4590000000
   C        -4.2220000000        -0.0260000000         0.0070000000
   H        -4.4970000000        -1.1100000000         0.0430000000
   H        -4.4350000000         0.0770000000         1.0490000000
   H        -4.8030000000         0.6090000000        -0.6940000000
   C        -2.2390000000         3.5320000000         1.5890000000
   H        -2.4840000000         3.9890000000         2.5520000000
   H        -1.3740000000         4.0420000000         1.1380000000
   H        -2.9430000000         3.9940000000         0.8650000000
   N        -0.2570000000         3.4040000000        -1.6580000000
   N        -0.3920000000         2.4610000000        -2.2740000000
   H        -1.2420000000        -1.0370000000         1.1700000000
   H        -3.2080000000         0.3890000000         2.4740000000
   C         0.1590000000        -6.0760000000        -0.0790000000
   C        -0.5380000000        -6.6770000000         1.0960000000
   C         1.1380000000        -6.7320000000        -0.9340000000
   C        -0.1310000000        -4.5050000000        -0.4180000000
   H         0.7810000000        -6.9310000000        -1.9530000000
   H         2.0520000000        -6.1430000000        -1.1350000000
   H         1.2770000000        -7.7180000000        -0.3930000000
   H         0.5840000000        -4.2190000000        -1.2080000000
   H        -1.0180000000        -4.3150000000        -1.0110000000
   H         0.1300000000        -3.8160000000         0.4460000000
   H        -1.1490000000        -7.5530000000         0.7960000000
   H         0.1400000000        -6.9820000000         1.9620000000
   H        -1.1910000000        -5.8800000000         1.4690000000
   C        -3.4980000000         3.8960000000        -1.6630000000
   H        -4.2900000000         1.9210000000        -1.6430000000
   H        12.3020000000        13.4580000000       -15.6170000000
   O        -3.6870000000         5.0630000000        -2.1710000000
