      36
Step =        0, E =     -7.61378187
   C        -3.4035542473         0.0569427888         0.1733495291
   C        -2.7201976053         2.2038826119        -0.4462721213
   H        -2.8749252924         2.9052014023         0.3928464545
   C        -4.0357265085         1.8901752303        -1.1602188048
   H        -4.7882852010         2.6767373171        -1.0197465536
   B        -3.5756482823        -1.1932994172         1.0724145970
   N        -4.4453971273         0.6431440162        -0.5156417585
   N        -2.2967793150         0.8825854761         0.0499357158
   C        -5.5705274295        -0.0753223408        -1.0898457850
   H        -5.4676669210        -0.1305453672        -2.1846002503
   H        -5.6081669283        -1.0962159040        -0.7034252725
   H        -6.5157102811         0.4227054523        -0.8386344456
   C        -1.2292133904         0.9154041392         1.0385856120
   H        -0.4636879145         1.6119484513         0.6797013991
   H        -1.5848084444         1.2478330640         2.0284443894
   H        -0.7688137218        -0.0659496743         1.1430338630
   N        -4.8466270953        -1.0310229510         1.6830361894
   N        -5.8852466445        -0.8324227852         2.1444885995
   H        -3.8880704302         1.7493854159        -2.2448363296
   H        -1.9602787947         2.6301561617        -1.1118468630
   C        -2.7036568464        -2.5313770964         1.3989088888
   C        -1.3476912079        -2.5011553794         0.6570428830
   C        -3.4940705348        -3.7819896979         0.9337276209
   C        -2.4610332142        -2.7002001247         2.9160195919
   H        -2.8964392765        -4.6879214511         1.1240808219
   H        -4.4362998868        -3.8934577060         1.4876734653
   H        -3.7309543879        -3.7618192615        -0.1379269558
   H        -1.9694788895        -1.8257051420         3.3613441467
   H        -3.4037432247        -2.8663342209         3.4556051346
   H        -1.8197739784        -3.5769159542         3.1024563454
   H        -0.9732288574        -3.5231511456         0.5024969358
   H        -1.4151214035        -2.0162337854        -0.3252958334
   H        -0.5831949315        -1.9766470312         1.2431814199
   C        -1.1854100327         3.1437265387        -3.7315873180
   O        -2.1675159597         2.9829189322        -4.3630109484
   O        -0.2106561478         3.3050464152        -3.0995416498
