      36
best product-like step 171
   C        -2.4330000000         0.9680000000        -0.3670000000
   C        -4.0350000000         2.3040000000         0.5710000000
   H        -4.8640000000         1.5720000000         0.5790000000
   C        -3.7880000000         2.8300000000        -0.8180000000
   H        -4.7160000000         3.0590000000        -1.3590000000
   B        -1.2540000000        -0.0880000000        -0.4060000000
   N        -3.0370000000         1.6890000000        -1.4380000000
   N        -2.7880000000         1.6170000000         0.8090000000
   C        -3.4550000000         1.2850000000        -2.8120000000
   H        -3.0300000000         1.9590000000        -3.5690000000
   H        -3.0940000000         0.2730000000        -3.0300000000
   H        -4.5540000000         1.2570000000        -2.8850000000
   C        -2.5780000000         1.3870000000         2.2550000000
   H        -1.7560000000         0.6870000000         2.4240000000
   H        -2.3110000000         2.3540000000         2.7000000000
   H        -3.4960000000         0.9930000000         2.7260000000
   N        -0.9510000000        -0.0800000000        -1.8700000000
   N        -0.5490000000         0.0780000000        -2.9030000000
   H        -3.1610000000         3.7300000000        -0.7610000000
   H        -4.2270000000         3.0710000000         1.3330000000
   C        -1.3070000000        -1.6150000000         0.3870000000
   C        -1.0030000000        -2.7630000000        -0.6280000000
   C        -2.7800000000        -1.6060000000         0.9070000000
   C        -0.6260000000        -2.1290000000         1.7100000000
   H        -3.1220000000        -2.6070000000         1.1740000000
   H        -2.8930000000        -1.0160000000         1.8280000000
   H        -3.5140000000        -1.2000000000         0.2010000000
   H         0.4040000000        -2.4840000000         1.5920000000
   H        -0.6610000000        -1.4200000000         2.5410000000
   H        -1.2380000000        -3.0000000000         1.9850000000
   H         0.0690000000        -2.7670000000        -0.9070000000
   H        -1.2060000000        -3.7430000000        -0.1850000000
   H        -1.5870000000        -2.6570000000        -1.5500000000
   C         1.9660000000        -0.2080000000         0.2150000000
   S         1.3050000000        -0.0070000000         1.6560000000
   S         2.6560000000        -0.4550000000        -1.2200000000
