      36
final step 1000
   C        -2.2340000000         1.0470000000        -0.3100000000
   C        -3.4230000000         2.4210000000         1.1790000000
   H        -4.1680000000         2.3160000000         1.9840000000
   C        -4.1200000000         2.4040000000        -0.1740000000
   H        -5.0920000000         1.8830000000        -0.1930000000
   B        -1.3660000000        -0.1460000000        -0.8070000000
   N        -3.2010000000         1.6060000000        -1.0660000000
   N        -2.4440000000         1.3370000000         1.0100000000
   C        -3.5810000000         1.6640000000        -2.4820000000
   H        -4.6210000000         1.3500000000        -2.6010000000
   H        -3.4300000000         2.6930000000        -2.8590000000
   H        -2.9420000000         1.0470000000        -3.1260000000
   C        -1.6890000000         0.8570000000         2.1620000000
   H        -0.8280000000         0.3020000000         1.8060000000
   H        -1.3140000000         1.7570000000         2.6600000000
   H        -2.3150000000         0.1990000000         2.7760000000
   N        -0.9960000000         0.0760000000        -2.1210000000
   N        -0.8590000000         0.3210000000        -3.2200000000
   H        -4.2410000000         3.4180000000        -0.5840000000
   H        -2.8970000000         3.3800000000         1.3300000000
   C        -1.8960000000        -1.7440000000        -0.7720000000
   C        -1.0120000000        -2.5970000000        -1.7240000000
   C        -3.1600000000        -1.8030000000        -1.6860000000
   C        -2.1530000000        -2.3010000000         0.7120000000
   H        -3.4040000000        -2.8500000000        -1.8740000000
   H        -4.0510000000        -1.2500000000        -1.3780000000
   H        -2.8900000000        -1.4080000000        -2.6920000000
   H        -1.2560000000        -2.2290000000         1.3370000000
   H        -2.9140000000        -1.6690000000         1.1860000000
   H        -2.5120000000        -3.3390000000         0.7610000000
   H         0.0360000000        -2.7540000000        -1.4670000000
   H        -1.4340000000        -3.6080000000        -1.7270000000
   H        -1.0620000000        -2.1620000000        -2.7320000000
   C         2.1970000000        -0.0570000000         1.0860000000
   S         1.2280000000        -0.9330000000         1.9560000000
   S         3.3090000000         0.7160000000         0.2820000000
