      36
best bond-forming step 288
   C        -2.4630000000         1.0900000000        -0.3110000000
   C        -3.6450000000         2.7680000000         0.8440000000
   H        -4.5080000000         2.2990000000         1.3520000000
   C        -3.8590000000         2.9830000000        -0.6780000000
   H        -4.9140000000         2.9930000000        -0.9780000000
   B        -1.5350000000        -0.2250000000        -0.5760000000
   N        -3.1260000000         1.8080000000        -1.3380000000
   N        -2.5130000000         1.8330000000         0.8460000000
   C        -3.9160000000         0.9610000000        -2.2410000000
   H        -4.3840000000         1.5710000000        -3.0310000000
   H        -3.2370000000         0.2380000000        -2.6950000000
   H        -4.6960000000         0.3980000000        -1.6880000000
   C        -1.7470000000         1.7070000000         2.0870000000
   H        -0.6890000000         1.9340000000         1.9330000000
   H        -2.1640000000         2.4680000000         2.7710000000
   H        -1.8260000000         0.7120000000         2.5670000000
   N        -1.0910000000        -0.2990000000        -1.9260000000
   N        -0.5140000000        -0.5820000000        -2.9240000000
   H        -3.3960000000         3.9370000000        -0.9860000000
   H        -3.3800000000         3.6770000000         1.4060000000
   C        -1.6240000000        -1.7780000000         0.0770000000
   C        -1.0530000000        -2.6910000000        -1.0280000000
   C        -3.0940000000        -2.2690000000         0.3590000000
   C        -0.8200000000        -2.1650000000         1.3720000000
   H        -3.0080000000        -3.2510000000         0.8470000000
   H        -3.6700000000        -1.6090000000         0.9980000000
   H        -3.6160000000        -2.4680000000        -0.5850000000
   H         0.2600000000        -2.0700000000         1.2250000000
   H        -1.0810000000        -1.5860000000         2.2770000000
   H        -1.0210000000        -3.2330000000         1.5870000000
   H        -0.0250000000        -2.4350000000        -1.2800000000
   H        -1.0810000000        -3.7410000000        -0.6640000000
   H        -1.6600000000        -2.6810000000        -1.9490000000
   C         2.0790000000        -0.0680000000         0.5170000000
   S         0.6130000000         0.4880000000         0.7880000000
   S         3.4190000000        -0.6700000000        -0.1090000000
