      36
best product-like step 345
   C        -2.4700000000         1.1230000000        -0.1110000000
   C        -4.2750000000         2.1340000000         0.8740000000
   H        -5.2480000000         1.6550000000         0.9980000000
   C        -4.0940000000         2.6370000000        -0.5450000000
   H        -4.9850000000         2.6910000000        -1.1590000000
   B        -0.9590000000         0.6300000000        -0.3310000000
   N        -3.1290000000         1.7010000000        -1.1260000000
   N        -3.1880000000         1.1460000000         1.0190000000
   C        -2.6200000000         2.0840000000        -2.4360000000
   H        -1.7720000000         2.7430000000        -2.3070000000
   H        -2.2760000000         1.2240000000        -2.9890000000
   H        -3.4280000000         2.5750000000        -2.9730000000
   C        -3.6530000000        -0.0540000000         1.7060000000
   H        -3.1120000000        -0.9330000000         1.4660000000
   H        -3.5950000000         0.1120000000         2.7860000000
   H        -4.7280000000        -0.2060000000         1.4770000000
   N        -0.9890000000        -0.2460000000        -2.7210000000
   N        -1.5670000000        -1.2020000000        -2.7700000000
   H        -3.6070000000         3.6110000000        -0.5080000000
   H        -4.2060000000         2.9300000000         1.6200000000
   C        -0.4940000000        -0.9280000000         0.6820000000
   C        -0.0700000000        -2.3760000000         1.2590000000
   C        -1.5680000000        -1.4080000000        -0.2420000000
   C        -0.5650000000        -0.1310000000         1.9860000000
   H        -2.4150000000        -1.9210000000         0.0450000000
   H        -1.9160000000        -0.4800000000        -0.7580000000
   H        -0.8360000000        -1.7640000000        -0.9760000000
   H        -0.7660000000         0.9660000000         1.9790000000
   H        -1.3260000000        -0.5430000000         2.6650000000
   H         0.4240000000        -0.1740000000         2.4280000000
   H         0.7630000000        -2.0370000000         1.8560000000
   H        -0.6810000000        -3.0890000000         1.7830000000
   H         0.3480000000        -2.9150000000         0.3800000000
   C         0.8370000000        -0.7520000000        -0.0490000000
   O         1.7140000000        -0.6280000000         0.8180000000
   O         0.9230000000        -0.9280000000        -1.2930000000
