      36
best bond-forming step 916
   C        -2.5220000000         0.8870000000        -0.1500000000
   C        -4.2510000000         1.6920000000         0.9190000000
   H        -5.5150000000         1.5870000000         0.8070000000
   C        -3.5740000000         2.7940000000         0.0340000000
   H        -4.4500000000         3.1200000000        -0.7680000000
   B        -1.5600000000        -0.1720000000        -0.4220000000
   N        -2.3450000000         2.3160000000        -0.6910000000
   N        -3.1920000000         0.7680000000         0.7560000000
   C        -1.7830000000         2.6930000000        -1.8430000000
   H        -1.1480000000         3.5790000000        -1.4060000000
   H        -0.7690000000         2.2690000000        -2.0590000000
   H        -2.3010000000         2.9060000000        -2.8280000000
   C        -3.4520000000        -0.3990000000         1.6440000000
   H        -2.6820000000        -1.1920000000         1.4800000000
   H        -3.3870000000        -0.1640000000         2.5870000000
   H        -4.4580000000        -0.9440000000         1.2660000000
   N        -0.9890000000        -0.1140000000        -2.3050000000
   N        -0.5670000000        -1.8280000000        -2.3430000000
   H        -3.1990000000         3.7040000000         0.5070000000
   H        -4.3190000000         2.3910000000         1.9880000000
   C         0.1900000000         0.2090000000         0.5960000000
   C         1.3550000000        -0.9370000000         0.3630000000
   C         1.0600000000         1.6360000000         0.4800000000
   C        -0.2090000000        -0.0750000000         2.5650000000
   H         0.4530000000         2.3450000000        -1.3600000000
   H         0.4460000000         2.4520000000         0.4790000000
   H         1.6810000000         2.0270000000         0.9740000000
   H        -0.9460000000         0.4980000000         2.1530000000
   H        -0.2060000000        -0.9870000000         2.4040000000
   H         0.6980000000         0.5120000000         2.5510000000
   H         2.4730000000        -0.4360000000         0.7160000000
   H         1.1220000000        -2.0210000000         0.0200000000
   H         1.4850000000        -0.4450000000        -0.4830000000
   C        -0.9570000000        -2.4770000000        -1.4990000000
   O        -1.5790000000        -1.3850000000        -0.3480000000
   O        -1.7170000000        -3.2330000000        -1.0200000000
