      36
final step 1000
   C        -2.3600000000         1.1070000000         0.1610000000
   C        -4.2520000000         1.8090000000         0.9960000000
   H        -5.2760000000         1.5560000000         0.9460000000
   C        -3.8010000000         2.8290000000        -0.0070000000
   H        -4.6080000000         3.0320000000        -0.9130000000
   B        -1.2660000000         0.2840000000        -0.5170000000
   N        -2.6150000000         2.2870000000        -0.5240000000
   N        -3.3700000000         0.4770000000         0.7460000000
   C        -1.8210000000         2.4340000000        -1.9230000000
   H        -1.0330000000         3.1120000000        -1.7070000000
   H        -1.0980000000         1.4840000000        -2.5300000000
   H        -2.5690000000         3.1820000000        -2.3170000000
   C        -3.3400000000        -0.5290000000         1.9870000000
   H        -2.6200000000        -1.0410000000         1.7250000000
   H        -2.8920000000         0.0700000000         2.8220000000
   H        -4.2610000000        -0.6810000000         1.9170000000
   N        -1.1630000000        -0.4770000000        -2.1920000000
   N        -0.7160000000        -1.4810000000        -2.3010000000
   H        -3.1210000000         3.6520000000         0.2650000000
   H        -4.3170000000         2.5330000000         1.8740000000
   C         0.3210000000         0.1240000000         0.5820000000
   C         1.3110000000        -0.7220000000         0.3260000000
   C         0.6360000000         1.1910000000        -0.0630000000
   C        -0.0810000000         0.3170000000         2.0260000000
   H         0.8630000000         2.1430000000        -1.0160000000
   H        -0.3470000000         2.9050000000         0.1610000000
   H         1.6840000000         1.7300000000         0.8540000000
   H        -0.5180000000         1.0600000000         2.3750000000
   H        -0.5570000000        -0.4620000000         2.5570000000
   H         1.0890000000         0.2680000000         2.5910000000
   H         2.2900000000        -0.4950000000         0.8820000000
   H         1.0820000000        -1.7540000000         0.4220000000
   H         1.9190000000        -0.8910000000        -0.3650000000
   C        -0.8230000000        -2.4140000000        -1.0750000000
   O        -1.4460000000        -1.2530000000        -0.4750000000
   O        -1.3710000000        -3.4840000000        -1.1210000000
