      37
best TS-like step 1549
   C        -1.9210000000        -0.7560000000         0.3080000000
   C        -1.7320000000        -1.5660000000         2.4920000000
   H        -0.7340000000        -2.0140000000         2.6340000000
   C        -2.6260000000        -2.5410000000         1.6880000000
   H        -2.2510000000        -3.5720000000         1.7800000000
   B        -1.6600000000         0.2560000000        -0.9070000000
   N        -2.4570000000        -1.9890000000         0.3620000000
   N        -1.5700000000        -0.4130000000         1.5730000000
   C        -2.6780000000        -2.9540000000        -0.6690000000
   H        -2.8790000000        -2.4950000000        -1.6430000000
   H        -1.7860000000        -3.6160000000        -0.7440000000
   H        -3.5300000000        -3.5960000000        -0.4030000000
   C        -0.6870000000         0.6890000000         1.8200000000
   H        -0.8080000000         1.4780000000         1.0680000000
   H        -0.9160000000         1.1390000000         2.7930000000
   H         0.3790000000         0.4060000000         1.8330000000
   N        -2.6920000000         1.1250000000        -1.1550000000
   N        -3.5150000000         1.9290000000        -1.3290000000
   H        -3.6990000000        -2.5550000000         1.9410000000
   H        -2.1070000000        -1.3370000000         3.4920000000
   C        -0.3950000000         0.1900000000        -1.9600000000
   C        -0.8600000000        -0.3290000000        -3.3340000000
   C         0.8600000000        -0.5680000000        -1.4450000000
   C         0.0220000000         1.6440000000        -2.1580000000
   H         1.1260000000        -0.0660000000        -0.5010000000
   H         0.7220000000        -1.6570000000        -1.3330000000
   H         1.6880000000        -0.3920000000        -2.1410000000
   H        -0.8680000000         2.2560000000        -2.3720000000
   H         0.4870000000         2.0520000000        -1.2590000000
   H         0.7350000000         1.7860000000        -2.9830000000
   H        -1.7600000000         0.2080000000        -3.6570000000
   H        -0.1820000000        -0.0940000000        -4.1440000000
   H        -1.1190000000        -1.4030000000        -3.3650000000
   C        -3.0780000000         3.6770000000        -0.0590000000
   H        -4.0960000000         3.6410000000        -0.4630000000
   H        -2.3720000000         4.2480000000        -0.7210000000
   O        -2.7310000000         3.1650000000         1.0150000000
