      37
best bond-forming step 140
   C        -2.4490000000         0.7720000000        -0.1750000000
   C        -4.3650000000         1.6450000000         0.8280000000
   H        -5.1070000000         0.8270000000         0.8410000000
   C        -4.2440000000         2.2450000000        -0.5620000000
   H        -5.1660000000         2.2070000000        -1.1470000000
   B        -1.2360000000        -0.1200000000        -0.4380000000
   N        -3.2670000000         1.3150000000        -1.1220000000
   N        -3.0060000000         1.1240000000         1.0270000000
   C        -3.0910000000         1.1670000000        -2.5350000000
   H        -2.4210000000         1.9320000000        -2.9440000000
   H        -2.7120000000         0.1840000000        -2.7940000000
   H        -4.0690000000         1.3080000000        -2.9940000000
   C        -2.6490000000         0.8540000000         2.3810000000
   H        -1.7370000000         0.2660000000         2.4680000000
   H        -2.5340000000         1.7990000000         2.9380000000
   H        -3.4720000000         0.2970000000         2.8520000000
   N        -0.6350000000         0.0990000000        -1.7670000000
   N         0.1080000000         0.3050000000        -2.6130000000
   H        -3.8740000000         3.2860000000        -0.5500000000
   H        -4.6170000000         2.3650000000         1.6140000000
   C        -1.2380000000        -1.5910000000         0.2810000000
   C        -0.9010000000        -2.6090000000        -0.8250000000
   C        -2.7230000000        -1.9540000000         0.5810000000
   C        -0.4340000000        -2.1520000000         1.4890000000
   H        -2.7870000000        -3.0440000000         0.5790000000
   H        -3.0460000000        -1.6000000000         1.5570000000
   H        -3.3770000000        -1.5640000000        -0.2130000000
   H         0.5950000000        -2.3740000000         1.2170000000
   H        -0.3990000000        -1.5220000000         2.3850000000
   H        -0.9030000000        -3.0900000000         1.7890000000
   H         0.1160000000        -2.5840000000        -1.1860000000
   H        -1.0500000000        -3.6340000000        -0.4920000000
   H        -1.5080000000        -2.5340000000        -1.7200000000
   C         1.2220000000         1.0650000000         0.0610000000
   H         0.9560000000         1.9820000000        -0.5180000000
   H         1.4990000000         1.1950000000         1.1330000000
   O         1.1790000000        -0.0480000000        -0.4440000000
