      37
final step 2000
   C        -1.2080000000        -0.6920000000         0.3440000000
   C        -0.8700000000        -1.7170000000         2.4240000000
   H         0.0880000000        -1.7020000000         2.9490000000
   C        -0.8950000000        -2.8350000000         1.4020000000
   H         0.1030000000        -3.2840000000         1.2290000000
   B        -1.8690000000         0.2580000000        -0.7590000000
   N        -1.4140000000        -2.0670000000         0.2310000000
   N        -0.9560000000        -0.4320000000         1.6390000000
   C        -1.4970000000        -2.8350000000        -1.0220000000
   H        -0.9290000000        -3.7360000000        -0.8100000000
   H        -2.5480000000        -3.0560000000        -1.2780000000
   H        -1.0160000000        -2.3280000000        -1.8790000000
   C        -0.2260000000         0.7450000000         1.9940000000
   H        -0.3450000000         0.9110000000         3.0720000000
   H         0.8520000000         0.6740000000         1.7890000000
   H        -0.5470000000         1.6060000000         1.4070000000
   N        -3.2700000000         0.0110000000        -0.8340000000
   N        -4.4200000000        -0.0490000000        -0.9360000000
   H        -1.5870000000        -3.6610000000         1.6280000000
   H        -1.6490000000        -1.7590000000         3.2020000000
   C        -1.1190000000         1.0410000000        -1.9620000000
   C        -1.6920000000         0.6510000000        -3.3370000000
   C         0.3670000000         0.6900000000        -1.9390000000
   C        -1.2900000000         2.5680000000        -1.7330000000
   H         0.7950000000         1.0280000000        -0.9850000000
   H         0.5250000000        -0.3890000000        -2.0290000000
   H         0.8420000000         1.2160000000        -2.7780000000
   H        -2.3260000000         2.9580000000        -1.7460000000
   H        -0.8480000000         2.8360000000        -0.7610000000
   H        -0.7370000000         3.1010000000        -2.5120000000
   H        -2.7670000000         0.6750000000        -3.4400000000
   H        -1.2440000000         1.2700000000        -4.1130000000
   H        -1.3980000000        -0.3690000000        -3.6010000000
   C        -3.5020000000         2.8300000000         0.9420000000
   H        -3.2810000000         1.7270000000         1.0900000000
   H        -3.3890000000         3.3850000000         1.9080000000
   O        -3.7780000000         3.3130000000        -0.1340000000
