      37
best TS-like step 768
   C        -2.2430000000        -0.0170000000         0.2860000000
   C        -2.7990000000         0.8800000000         2.2960000000
   H        -3.2660000000         0.7710000000         3.2830000000
   C        -3.9040000000         1.2330000000         1.1960000000
   H        -4.9050000000         1.2240000000         1.6530000000
   B        -1.1040000000        -0.1970000000        -0.7840000000
   N        -3.6930000000         0.2140000000         0.1140000000
   N        -2.0250000000        -0.3290000000         1.7240000000
   C        -4.3890000000         0.6220000000        -1.2130000000
   H        -3.7420000000         0.5890000000        -2.0780000000
   H        -5.2180000000        -0.0730000000        -1.3840000000
   H        -4.8410000000         1.6210000000        -1.1330000000
   C        -2.7020000000        -1.7090000000         2.0880000000
   H        -2.9460000000        -1.7820000000         3.1530000000
   H        -3.5850000000        -1.8530000000         1.4420000000
   H        -1.9770000000        -2.4920000000         1.8350000000
   N        -1.5340000000         0.2160000000        -2.1410000000
   N        -1.7710000000         1.1960000000        -2.7930000000
   H        -3.7980000000         2.2330000000         0.7540000000
   H        -2.0370000000         1.6670000000         2.3330000000
   C         0.2050000000        -1.1240000000        -0.7470000000
   C         0.9910000000        -0.7550000000        -2.0110000000
   C        -0.5480000000        -2.5980000000        -0.8560000000
   C         1.1620000000        -1.0970000000         0.4820000000
   H         0.1490000000        -3.4430000000        -0.8740000000
   H        -1.2820000000        -2.8180000000        -0.0760000000
   H        -1.1380000000        -2.7010000000        -1.7960000000
   H         0.5830000000        -1.5470000000         1.3100000000
   H         2.1140000000        -1.6570000000         0.3700000000
   H         1.3570000000        -0.0980000000         0.9180000000
   H         1.6400000000         0.0650000000        -1.6940000000
   H         1.6700000000        -1.5490000000        -2.3740000000
   H         0.4390000000        -0.2630000000        -2.7970000000
   C        -1.8660000000         2.7830000000        -1.1880000000
   H        -2.9570000000         2.8970000000        -1.1880000000
   H        -1.3530000000         3.3940000000        -1.9410000000
   O        -1.2150000000         2.3720000000        -0.2040000000
