      37
final step 2000
   C        -1.6410000000        -0.4830000000         0.3710000000
   C        -1.2660000000        -1.5620000000         2.4720000000
   H        -0.2310000000        -1.9320000000         2.5910000000
   C        -2.1270000000        -2.5070000000         1.5570000000
   H        -1.6120000000        -3.4880000000         1.6220000000
   B        -1.6560000000         0.6780000000        -0.8260000000
   N        -2.0460000000        -1.8100000000         0.2320000000
   N        -1.2160000000        -0.3110000000         1.6490000000
   C        -2.4840000000        -2.3020000000        -1.1550000000
   H        -3.5150000000        -2.0200000000        -1.4660000000
   H        -1.8510000000        -1.7770000000        -1.8920000000
   H        -2.2100000000        -3.3630000000        -1.2560000000
   C        -0.0770000000         0.6280000000         1.9080000000
   H        -0.1840000000         1.1650000000         2.8600000000
   H         0.8960000000         0.1070000000         1.8620000000
   H        -0.1610000000         1.4030000000         1.1420000000
   N        -2.9330000000         1.2200000000        -1.2350000000
   N        -3.8720000000         1.5780000000        -1.8530000000
   H        -3.1720000000        -2.6510000000         1.8690000000
   H        -1.7900000000        -1.4000000000         3.4150000000
   C        -0.2420000000         0.8110000000        -2.0080000000
   C        -0.7500000000         0.3600000000        -3.5180000000
   C         0.9520000000        -0.1990000000        -1.7900000000
   C         0.3650000000         2.2600000000        -1.7750000000
   H         0.6640000000        -1.1630000000        -2.2360000000
   H         1.7880000000         0.0320000000        -2.4430000000
   H         1.2390000000        -0.3420000000        -0.7530000000
   H         0.5090000000         2.4410000000        -0.6960000000
   H         1.3780000000         2.3590000000        -2.2100000000
   H        -0.3420000000         3.0410000000        -2.0700000000
   H        -0.2430000000        -0.5870000000        -3.8370000000
   H        -1.8430000000         0.2090000000        -3.5020000000
   H        -0.5970000000         1.0570000000        -4.3510000000
   C        -4.8840000000         1.7120000000         1.2610000000
   H        -5.3900000000         0.7170000000         1.2880000000
   H        -5.5280000000         2.5950000000         1.4640000000
   O        -3.6970000000         1.8070000000         0.9550000000
