      37
best product-like step 1266
   C        -2.1690000000        -0.3720000000         0.4250000000
   C        -2.7180000000        -0.8010000000         2.6250000000
   H        -3.0250000000        -1.8100000000         2.9380000000
   C        -3.8390000000        -0.1360000000         1.8560000000
   H        -4.8950000000        -0.2680000000         2.0680000000
   B        -1.4290000000         0.2520000000        -0.7340000000
   N        -3.6220000000        -0.5680000000         0.4490000000
   N        -1.7490000000        -0.9300000000         1.5600000000
   C        -4.4320000000        -1.7270000000        -0.1910000000
   H        -4.8390000000        -1.4090000000        -1.1500000000
   H        -3.8590000000        -2.6480000000        -0.3690000000
   H        -5.2370000000        -1.9570000000         0.5080000000
   C        -0.8320000000        -2.0320000000         1.4530000000
   H        -1.2920000000        -3.0060000000         1.1710000000
   H        -0.1770000000        -1.7480000000         0.6330000000
   H        -0.3070000000        -2.0910000000         2.4170000000
   N        -2.4100000000         0.3710000000        -1.7170000000
   N        -3.1220000000         0.5200000000        -2.6090000000
   H        -3.6990000000         0.9560000000         2.0010000000
   H        -2.2370000000        -0.3270000000         3.4970000000
   C         0.2130000000         0.1680000000        -1.2170000000
   C         0.3560000000         0.9120000000        -2.6340000000
   C         0.9920000000        -1.1830000000        -1.3420000000
   C         0.7790000000         0.9130000000         0.0680000000
   H         2.0790000000        -1.0410000000        -1.4520000000
   H         1.0130000000        -1.8200000000        -0.4540000000
   H         0.7500000000        -1.7270000000        -2.2680000000
   H         0.6290000000         2.0000000000        -0.0260000000
   H         0.2680000000         0.6380000000         1.0000000000
   H         1.8540000000         0.7630000000         0.2210000000
   H         1.3500000000         1.3890000000        -2.8060000000
   H         0.2750000000         0.2190000000        -3.5020000000
   H        -0.4780000000         1.5930000000        -2.8260000000
   C        -1.6930000000         3.2360000000        -1.4130000000
   H        -0.8920000000         3.9490000000        -1.7900000000
   H        -2.2130000000         2.6160000000        -2.1820000000
   O        -2.0550000000         3.1590000000        -0.2580000000
