      36
Step =        0, E =     -7.61411629
   C        -3.9617817289        -0.1012565821        -0.0247448259
   C        -4.3100021265         2.2136135432        -0.3052317585
   H        -3.4585403932         2.8930554686        -0.4576874886
   C        -4.4940593698         1.8526719679         1.1814619811
   H        -3.8124476658         2.4167501243         1.8349712100
   B        -3.7771875950        -1.5968858596        -0.3835107116
   N        -4.1925447040         0.4189365766         1.2175935423
   N        -4.0795390226         0.9162070318        -0.9534467267
   C        -4.5448414412        -0.3539732209         2.3962650084
   H        -5.2310803670         0.2410137435         3.0084841472
   H        -5.0587694028        -1.2802785487         2.1136682848
   H        -3.6635521516        -0.6152186600         2.9930440488
   C        -3.3929923172         0.9458637326        -2.2363551063
   H        -3.8355010901         1.7463170385        -2.8405207569
   H        -2.3131985427         1.1431872176        -2.1268948184
   H        -3.5221133107         0.0087088592        -2.7806055622
   N        -4.5627209487        -1.8236781027        -1.5368376527
   N        -5.2063302983        -1.9563117386        -2.4861994138
   H        -5.5235173548         2.0453509008         1.5207160589
   H        -5.1980552739         2.7047382791        -0.7265211726
   C        -2.8238734908        -2.7984941300         0.1697771709
   C        -3.4980292530        -4.1860557160         0.0873977390
   C        -2.3543694412        -2.5871429163         1.6201456904
   C        -1.5808404032        -2.8081267981        -0.7560948699
   H        -1.5847753953        -3.3344696209         1.8659844163
   H        -1.9202789299        -1.5933513262         1.7873328227
   H        -3.1767349607        -2.7306034978         2.3310369798
   H        -1.8585729633        -3.0578191081        -1.7893169232
   H        -1.0809632641        -1.8308163192        -0.7691738633
   H        -0.8492662769        -3.5606423055        -0.4185926594
   H        -3.8568203532        -4.4226902081        -0.9227221967
   H        -2.7715731887        -4.9656551293         0.3683632749
   H        -4.3485267569        -4.2702220416         0.7775457081
   C        -1.0451453556         2.4825022447         0.4788061985
   O        -1.1031188131         1.4938036159         1.1024277673
   O        -1.0073863974         3.4801568259        -0.1494344948
