      25
best product-like step 122
   C        -2.0410000000        -0.2270000000         0.1660000000
   C        -3.9760000000         1.1270000000         0.5330000000
   H        -4.9080000000         0.6150000000         0.2550000000
   C        -3.2400000000         1.6310000000        -0.6960000000
   H        -3.8580000000         1.8150000000        -1.5790000000
   B        -0.9290000000        -1.3210000000         0.3250000000
   N        -2.3430000000         0.4790000000        -0.9570000000
   N        -2.9810000000         0.1670000000         1.0780000000
   C        -1.6190000000         0.5430000000        -2.2130000000
   H        -0.5400000000         0.6110000000        -2.0980000000
   H        -1.8520000000        -0.3140000000        -2.8500000000
   H        -1.9450000000         1.4610000000        -2.7080000000
   C        -3.4060000000        -0.5420000000         2.2300000000
   H        -2.5980000000        -1.0970000000         2.7100000000
   H        -3.8150000000         0.1820000000         2.9380000000
   H        -4.2020000000        -1.2560000000         1.9810000000
   N        -0.2320000000        -1.7720000000        -0.8330000000
   N         0.0720000000        -2.1390000000        -1.8870000000
   H        -2.6680000000         2.5420000000        -0.4670000000
   H        -4.2110000000         1.8830000000         1.2890000000
   C        -0.6820000000        -2.0990000000         1.6470000000
   N        -1.0380000000        -2.7730000000         2.5200000000
   C         1.1840000000        -0.2630000000        -0.2940000000
   O         1.0900000000        -0.5280000000         0.8620000000
   O         1.3120000000        -0.0040000000        -1.4450000000
