      25
final step 1000
   C        -2.2280000000        -0.7910000000         0.2840000000
   C        -4.2230000000        -0.2780000000         1.5960000000
   H        -4.6060000000        -0.4140000000         2.6080000000
   C        -4.4720000000        -1.4860000000         0.7550000000
   H        -4.3540000000        -2.4550000000         1.2490000000
   B        -0.6110000000        -1.0870000000        -0.3960000000
   N        -3.2620000000        -1.4460000000        -0.2270000000
   N        -2.6100000000        -0.2890000000         1.5680000000
   C        -3.4540000000        -1.8480000000        -1.6750000000
   H        -3.0680000000        -1.1090000000        -2.3850000000
   H        -3.0780000000        -2.8480000000        -1.9080000000
   H        -4.5480000000        -1.8610000000        -1.7180000000
   C        -1.6500000000         0.7910000000         2.0500000000
   H        -1.9380000000         1.7790000000         1.6580000000
   H        -1.5850000000         0.8030000000         3.1380000000
   H        -0.6440000000         0.5750000000         1.6710000000
   N        -0.4620000000        -0.4250000000        -1.7000000000
   N        -0.0890000000        -0.0140000000        -2.7170000000
   H        -5.4430000000        -1.4370000000         0.2460000000
   H        -4.6820000000         0.6390000000         1.1840000000
   C         0.1200000000        -2.1800000000         0.3950000000
   N         0.5480000000        -2.8220000000         1.3020000000
   C         1.1100000000         1.3040000000        -0.1620000000
   O         1.6850000000         0.6190000000         0.6380000000
   O         0.9110000000         2.0790000000        -1.0480000000
