      25
best bond-forming step 148
   C        -2.0240000000        -0.3090000000         0.1230000000
   C        -3.9330000000         1.0220000000         0.5670000000
   H        -4.8310000000         0.4240000000         0.3410000000
   C        -3.2610000000         1.5610000000        -0.6680000000
   H        -3.9780000000         1.6190000000        -1.5000000000
   B        -1.0050000000        -1.4040000000         0.3400000000
   N        -2.2050000000         0.5720000000        -0.9370000000
   N        -2.8720000000         0.1800000000         1.1150000000
   C        -1.7290000000         0.6150000000        -2.2990000000
   H        -0.6530000000         0.8200000000        -2.3820000000
   H        -1.9600000000        -0.2990000000        -2.8600000000
   H        -2.2620000000         1.4280000000        -2.8080000000
   C        -3.2750000000        -0.5630000000         2.2860000000
   H        -2.4340000000        -1.0950000000         2.7340000000
   H        -3.6530000000         0.1470000000         3.0310000000
   H        -4.0630000000        -1.2960000000         2.0530000000
   N        -0.0840000000        -1.7190000000        -0.7950000000
   N         0.2660000000        -2.1080000000        -1.8290000000
   H        -2.8260000000         2.5590000000        -0.5290000000
   H        -4.2040000000         1.8130000000         1.2730000000
   C        -0.6910000000        -2.0830000000         1.6330000000
   N        -0.8410000000        -2.7500000000         2.5690000000
   C         0.9720000000        -0.2950000000        -0.3660000000
   O         0.6540000000        -0.5690000000         0.7590000000
   O         1.2500000000         0.0930000000        -1.4490000000
