      25
best product-like step 62
   C        -2.0560000000        -0.1810000000         0.1880000000
   C        -3.9850000000         1.2350000000         0.4610000000
   H        -4.9570000000         0.8090000000         0.1430000000
   C        -3.1590000000         1.6760000000        -0.7380000000
   H        -3.7140000000         2.0660000000        -1.6010000000
   B        -0.4810000000        -0.8630000000         0.5660000000
   N        -2.4430000000         0.3710000000        -1.0660000000
   N        -3.1040000000         0.1590000000         1.0610000000
   C        -1.4020000000         0.4230000000        -2.1190000000
   H        -0.4040000000         0.3570000000        -1.6770000000
   H        -1.5270000000        -0.3780000000        -2.8600000000
   H        -1.4330000000         1.3840000000        -2.6590000000
   C        -3.7030000000        -0.5560000000         2.2340000000
   H        -2.9550000000        -1.1640000000         2.7590000000
   H        -4.1220000000         0.1850000000         2.9300000000
   H        -4.5110000000        -1.2270000000         1.8870000000
   N        -0.8230000000        -2.0240000000        -0.9830000000
   N         0.0510000000        -2.0450000000        -1.6830000000
   H        -2.4050000000         2.4280000000        -0.4240000000
   H        -4.1740000000         2.0180000000         1.2120000000
   C        -1.0730000000        -2.0750000000         1.5060000000
   N        -1.3050000000        -2.8080000000         2.4040000000
   C         1.4520000000        -0.4070000000        -0.2740000000
   O         1.5510000000        -0.4640000000         0.9080000000
   O         1.5980000000        -0.0670000000        -1.4200000000
