      25
best bond-forming step 87
   C        -1.8220000000         0.0760000000         0.3400000000
   C        -3.9290000000         1.0810000000         0.4860000000
   H        -4.8920000000         0.6090000000         0.2080000000
   C        -3.1530000000         1.5630000000        -0.7290000000
   H        -3.8170000000         1.8220000000        -1.5660000000
   B        -0.5160000000        -0.6620000000         0.8290000000
   N        -2.3110000000         0.3750000000        -0.9980000000
   N        -3.0060000000         0.1070000000         1.0850000000
   C        -1.4620000000         0.4720000000        -2.1890000000
   H        -0.3970000000         0.5450000000        -1.9480000000
   H        -1.6220000000        -0.3810000000        -2.8660000000
   H        -1.7030000000         1.4070000000        -2.7280000000
   C        -3.5450000000        -0.5880000000         2.2760000000
   H        -2.7960000000        -1.2100000000         2.7710000000
   H        -3.9260000000         0.1740000000         2.9780000000
   H        -4.3850000000        -1.2400000000         1.9680000000
   N        -0.4370000000        -2.0160000000        -1.0640000000
   N         0.5020000000        -1.8800000000        -1.6610000000
   H        -2.5220000000         2.4480000000        -0.4830000000
   H        -4.1350000000         1.9070000000         1.1890000000
   C        -0.5740000000        -1.9140000000         1.7560000000
   N        -1.2860000000        -2.6990000000         2.2300000000
   C         0.5700000000        -0.3930000000        -0.5470000000
   O         0.7320000000        -0.8310000000         0.7980000000
   O         1.4800000000        -0.1540000000        -1.4510000000
