      25
final step 1000
   C        -6.5700000000        -0.2890000000         2.3760000000
   C        -7.3010000000         1.8540000000         3.0040000000
   H        -8.2270000000         2.2680000000         3.4110000000
   C        -7.0750000000         1.9600000000         1.4500000000
   H        -8.0260000000         1.8550000000         0.9200000000
   B        -1.4050000000        -2.1210000000         3.3080000000
   N        -6.3360000000         0.6020000000         1.3320000000
   N        -7.3140000000         0.3790000000         3.2750000000
   C        -5.7680000000        -0.1360000000         0.1300000000
   H        -6.1030000000         0.3870000000        -0.7590000000
   H        -4.7300000000        -0.4090000000         0.4590000000
   H        -6.2260000000        -1.1760000000         0.0950000000
   C        -7.5050000000         0.0550000000         4.7970000000
   H        -8.4750000000        -0.4070000000         5.0120000000
   H        -6.6880000000        -0.5890000000         5.1220000000
   H        -7.4050000000         1.0310000000         5.2800000000
   N         8.3430000000        -0.5940000000        -5.4880000000
   N         7.3550000000        -0.1470000000        -5.2950000000
   H        -6.5470000000         2.8700000000         1.1440000000
   H        -6.4200000000         2.2520000000         3.5330000000
   C        -3.1720000000        -2.3980000000         1.4550000000
   N        -2.3060000000        -2.6390000000         2.1930000000
   C        10.3650000000        -0.8270000000        -7.3080000000
   O        -0.2020000000        -1.5880000000         3.6370000000
   O         9.7950000000        -1.7300000000        -7.7790000000
