      34
best bond-forming step 101
   C        -1.8660000000        -0.9700000000         0.2360000000
   C        -1.6150000000        -3.1590000000         1.0460000000
   H        -2.5460000000        -3.7410000000         0.9970000000
   C        -1.5790000000        -2.1580000000         2.2100000000
   H        -2.1600000000        -2.4680000000         3.0790000000
   B        -2.0090000000         0.2200000000        -0.6980000000
   N        -2.2130000000        -0.9500000000         1.5760000000
   N        -1.5330000000        -2.2320000000        -0.1330000000
   C        -2.1130000000         0.2800000000         2.3550000000
   H        -1.0710000000         0.6130000000         2.4700000000
   H        -2.6820000000         1.0840000000         1.8940000000
   H        -2.5370000000         0.0850000000         3.3440000000
   C        -1.5840000000        -2.6630000000        -1.5350000000
   H        -2.4900000000        -2.3070000000        -2.0310000000
   H        -0.7170000000        -2.3070000000        -2.1020000000
   H        -1.5680000000        -3.7560000000        -1.5470000000
   N        -1.3630000000         0.3100000000        -1.9960000000
   N        -0.8920000000         0.6580000000        -2.9740000000
   C        -3.0780000000         1.3470000000        -0.5010000000
   C        -2.7330000000         2.5750000000        -1.0730000000
   C        -4.3900000000         1.2030000000        -0.0120000000
   C        -3.6650000000         3.6280000000        -1.1920000000
   H        -1.7200000000         2.7060000000        -1.4900000000
   C        -5.3320000000         2.2100000000        -0.1420000000
   H        -4.6370000000         0.2380000000         0.4760000000
   C        -4.9690000000         3.4170000000        -0.7340000000
   H        -3.3080000000         4.5420000000        -1.6420000000
   H        -6.3430000000         2.0400000000         0.2460000000
   H        -5.6970000000         4.2320000000        -0.8330000000
   H        -0.5480000000        -1.9440000000         2.5060000000
   H        -0.7440000000        -3.8280000000         1.0760000000
   C         2.3900000000         0.1350000000        -0.4340000000
   O         2.6460000000         0.0760000000         0.7000000000
   O         2.0950000000         0.2440000000        -1.5530000000
