      34
best product-like step 279
   C        -1.7590000000        -0.9710000000         0.2880000000
   C        -1.6120000000        -3.1250000000         1.1820000000
   H        -2.6720000000        -3.4520000000         1.2570000000
   C        -1.2300000000        -2.1080000000         2.2510000000
   H        -1.6630000000        -2.2910000000         3.2390000000
   B        -2.1980000000         0.1490000000        -0.6420000000
   N        -1.7150000000        -0.8620000000         1.6890000000
   N        -1.3640000000        -2.3090000000        -0.0070000000
   C        -1.3700000000         0.3710000000         2.3970000000
   H        -0.2890000000         0.4330000000         2.6010000000
   H        -1.6760000000         1.2260000000         1.7830000000
   H        -1.9220000000         0.4310000000         3.3430000000
   C        -1.5860000000        -2.9810000000        -1.3110000000
   H        -2.5700000000        -3.4680000000        -1.3410000000
   H        -1.5510000000        -2.2540000000        -2.1180000000
   H        -0.7940000000        -3.7190000000        -1.5000000000
   N        -2.0540000000        -0.0760000000        -2.0440000000
   N        -2.1550000000        -0.0190000000        -3.1970000000
   C        -3.1730000000         1.4350000000        -0.4190000000
   C        -2.8220000000         2.6600000000        -1.0010000000
   C        -4.5160000000         1.3120000000         0.1180000000
   C        -3.7040000000         3.7030000000        -1.0710000000
   H        -1.8310000000         2.7890000000        -1.4410000000
   C        -5.4060000000         2.3730000000        -0.0310000000
   H        -4.8700000000         0.3990000000         0.5880000000
   C        -5.0040000000         3.5590000000        -0.6170000000
   H        -3.4670000000         4.6590000000        -1.5360000000
   H        -6.4240000000         2.2960000000         0.3550000000
   H        -5.7410000000         4.3580000000        -0.6650000000
   H        -0.1280000000        -2.1340000000         2.3560000000
   H        -0.9640000000        -4.0160000000         1.2200000000
   C         2.6120000000         0.3370000000        -0.7820000000
   O         2.2480000000         0.0800000000         0.3360000000
   O         2.8840000000         0.6630000000        -1.8890000000
