      34
final step 1000
   C        -1.6080000000        -0.8540000000         0.6210000000
   C        -0.2250000000        -2.6200000000         1.1880000000
   H        -0.1500000000        -3.5280000000         1.7930000000
   C         0.3410000000        -1.3830000000         1.8520000000
   H         0.3090000000        -1.3200000000         2.9520000000
   B        -2.5490000000        -0.0470000000        -0.2660000000
   N        -0.4700000000        -0.3650000000         1.1930000000
   N        -1.6240000000        -2.2130000000         0.8460000000
   C         0.0610000000         0.9700000000         1.0020000000
   H         0.5330000000         1.0930000000         0.0060000000
   H        -0.7380000000         1.7210000000         1.0740000000
   H         0.8040000000         1.2110000000         1.7660000000
   C        -2.5080000000        -3.1890000000         0.1970000000
   H        -3.5640000000        -3.0150000000         0.4240000000
   H        -2.3700000000        -3.2640000000        -0.8940000000
   H        -2.2230000000        -4.1680000000         0.6130000000
   N        -2.7160000000        -0.6780000000        -1.4890000000
   N        -2.7320000000        -1.2140000000        -2.5010000000
   C        -3.3700000000         1.2550000000        -0.0940000000
   C        -4.0280000000         1.9770000000        -1.0880000000
   C        -3.6870000000         1.7110000000         1.1910000000
   C        -4.9900000000         2.9580000000        -0.8360000000
   H        -3.8110000000         1.8020000000        -2.1420000000
   C        -4.6340000000         2.7300000000         1.4510000000
   H        -3.1970000000         1.2760000000         2.0600000000
   C        -5.3040000000         3.3450000000         0.4290000000
   H        -5.4600000000         3.4040000000        -1.6840000000
   H        -4.7890000000         2.9440000000         2.4910000000
   H        -6.0410000000         4.1080000000         0.7090000000
   H         1.3900000000        -1.2400000000         1.5400000000
   H         0.3420000000        -2.8020000000         0.2460000000
   C         1.9430000000         0.5430000000        -2.5560000000
   O         2.0040000000        -0.5480000000        -2.1860000000
   O         1.9370000000         1.6320000000        -2.9730000000
