      34
best TS-like step 283
   C        -1.7610000000        -0.9740000000         0.2900000000
   C        -1.6040000000        -3.1220000000         1.1870000000
   H        -2.6590000000        -3.4350000000         1.2850000000
   C        -1.2210000000        -2.1020000000         2.2560000000
   H        -1.6610000000        -2.3030000000         3.2370000000
   B        -2.2070000000         0.1430000000        -0.6440000000
   N        -1.7140000000        -0.8600000000         1.6940000000
   N        -1.3630000000        -2.3130000000        -0.0110000000
   C        -1.3540000000         0.3880000000         2.3860000000
   H        -0.2750000000         0.4380000000         2.5840000000
   H        -1.6540000000         1.2410000000         1.7720000000
   H        -1.9020000000         0.4570000000         3.3360000000
   C        -1.5910000000        -2.9720000000        -1.3230000000
   H        -2.5620000000        -3.4770000000        -1.3520000000
   H        -1.5720000000        -2.2280000000        -2.1160000000
   H        -0.7780000000        -3.6810000000        -1.5260000000
   N        -2.0650000000        -0.0850000000        -2.0460000000
   N        -2.1890000000        -0.0540000000        -3.2070000000
   C        -3.1910000000         1.4240000000        -0.4200000000
   C        -2.8270000000         2.6640000000        -0.9970000000
   C        -4.5330000000         1.3240000000         0.1240000000
   C        -3.6940000000         3.7040000000        -1.0680000000
   H        -1.8270000000         2.7300000000        -1.4200000000
   C        -5.4150000000         2.3720000000        -0.0110000000
   H        -4.8740000000         0.4180000000         0.5990000000
   C        -4.9970000000         3.5520000000        -0.6110000000
   H        -3.4290000000         4.6700000000        -1.5260000000
   H        -6.4390000000         2.3240000000         0.3680000000
   H        -5.7140000000         4.3640000000        -0.6770000000
   H        -0.1330000000        -2.1280000000         2.3500000000
   H        -0.9440000000        -4.0070000000         1.2370000000
   C         2.6230000000         0.3340000000        -0.7840000000
   O         2.2560000000         0.0850000000         0.3270000000
   O         2.9040000000         0.6740000000        -1.8890000000
