      36
Step =        0, E =     -7.61909589
   C        -3.9050226633         0.5621864910         0.3596093348
   C        -3.9973268371         1.9035952678         2.2905563864
   H        -4.6219607167         1.8112456163         3.1891458157
   C        -4.7268407887         2.6175355437         1.1460318326
   H        -5.8200367637         2.6338288067         1.3033980547
   B        -3.6438113027        -0.6350444428        -0.5669460950
   N        -4.3881541325         1.7939986449        -0.0167716251
   N        -3.6989025042         0.5732616639         1.7290742997
   C        -5.0467280927         2.1075110225        -1.2740182805
   H        -4.4719314281         2.8456119831        -1.8495862481
   H        -5.1701529779         1.2131497760        -1.8871014189
   H        -6.0488382232         2.5086032117        -1.0711699848
   C        -2.5642001707        -0.0998727507         2.3566087575
   H        -2.4813301575        -1.1330033143         2.0171600101
   H        -1.6171163711         0.4175319587         2.1403989877
   H        -2.7267654093        -0.1072614896         3.4419314151
   N        -3.2845743657        -0.2335815646        -1.8771596309
   N        -3.0128413003         0.0151260431        -2.9701043024
   H        -4.3882240653         3.6530362245         1.0137570008
   H        -3.0694848680         2.4284609163         2.5655703436
   C        -3.8536544778        -2.2454368758        -0.3950022570
   C        -4.7835660980        -2.7087109409        -1.5451031885
   C        -4.5537061235        -2.6190042982         0.9265481258
   C        -2.5151216181        -3.0088939933        -0.5199226750
   H        -4.7384750945        -3.7037505480         0.9506200134
   H        -3.9601111454        -2.3786808082         1.8144435492
   H        -5.5219976942        -2.1115171845         1.0286459514
   H        -1.9067936620        -2.6290282584        -1.3514367465
   H        -1.9107795818        -2.9284186391         0.3933134921
   H        -2.6968668728        -4.0799330866        -0.7047492451
   H        -4.3175974356        -2.5843363294        -2.5306231490
   H        -5.0313808122        -3.7749569433        -1.4291504579
   H        -5.7287844202        -2.1487981447        -1.5470647877
   C        -0.3532823109         2.1324414714        -0.5962393397
   O         0.0890624203         2.1102185092        -1.6859857154
   O        -0.7765223450         2.1677822117         0.4968474757
