      36
Step =        0, E =     -7.60957237
   C        -3.8859900908        -0.7097197841         0.9485591090
   C        -2.1525065015        -1.5718287188         2.2953767893
   H        -1.4930734462        -0.8462529370         2.7984921275
   C        -1.7784716345        -1.7623051355         0.8210674701
   H        -0.7940351538        -1.3457911943         0.5673991132
   B        -5.2448124366        -0.1081872476         0.5367494133
   N        -2.8505968581        -1.0563488082         0.1028215497
   N        -3.5257046151        -1.0582378635         2.2344056861
   C        -3.0066600301        -1.4531218177        -1.2874036387
   H        -3.9407832326        -1.0715032103        -1.6962817313
   H        -2.1736098455        -1.0558570329        -1.8842189742
   H        -3.0272444909        -2.5510569014        -1.3759803460
   C        -4.0070982097        -0.4564314852         3.4683356928
   H        -4.1010535694        -1.2366203060         4.2341484729
   H        -3.3041530460         0.3130080189         3.8246205001
   H        -4.9840237909         0.0082675933         3.3442205127
   N        -6.2411686239        -0.4883940018         1.4685906115
   N        -7.0702904935        -0.7764086401         2.2153540410
   H        -1.7794480336        -2.8286247850         0.5439489136
   H        -2.1152646980        -2.5121890631         2.8622894984
   C        -5.7880474586         0.7685538018        -0.7350127896
   C        -6.5877301475        -0.1416371900        -1.6998385555
   C        -4.6595862603         1.5080448120        -1.4843397524
   C        -6.7646482585         1.8606623957        -0.2333607611
   H        -5.0924745041         2.0819009043        -2.3178721892
   H        -4.1449524249         2.2168883483        -0.8230744253
   H        -3.9002004805         0.8505579389        -1.9142311197
   H        -7.6172139165         1.4414100146         0.3149116215
   H        -6.2612608250         2.5846709869         0.4208346270
   H        -7.1697541708         2.4161890771        -1.0937795248
   H        -7.4840869181        -0.5399573519        -1.2040760087
   H        -6.9253956718         0.4302940350        -2.5784245841
   H        -6.0119424913        -1.0017669614        -2.0636880766
   C         2.7952642300         0.2107325534        -2.1271414184
   O         3.3268769458        -0.5761677893        -1.4302715210
   O         2.2588477689         0.9913526640        -2.8165467466
