      36
Step =        0, E =     -7.60691167
   C         1.0870486199        -0.0476275824        -0.0737555473
   C         3.0508347376        -1.3349391439         0.1009602338
   H         3.2154512164        -1.6985097210         1.1347973943
   C         3.4408415720         0.1594531588        -0.0466586091
   H         4.0258199383         0.4879659571         0.8266920581
   B        -1.0116492137         0.0542653927        -0.0020863927
   N         2.1611331751         0.8682072747        -0.1345495564
   N         1.6578940702        -1.3372998299        -0.2660718333
   C         1.9866349788         2.1766756691         0.4883166625
   H         1.9079789773         2.9863120268        -0.2495241249
   H         1.0781009416         2.2105155682         1.1021954351
   H         2.8130200105         2.3929846373         1.1796181884
   C         0.9947535676        -2.4727884613        -0.8609601307
   H        -0.0039859622        -2.1812946489        -1.1960045171
   H         1.5275380307        -2.8198227090        -1.7636385871
   H         0.8830248768        -3.3256895787        -0.1701976771
   N        -1.4958177989         2.4921171733        -0.7703673712
   N        -0.9001272288         3.2750923726        -1.2886504720
   H         4.0457034737         0.3221394324        -0.9511602062
   H         3.6395399722        -1.9728186777        -0.5739955921
   C        -2.4786640453        -0.4292757174         0.1730306753
   C        -3.3102238770         0.6213442566         0.9295515014
   C        -2.1599337355        -1.5993553934         1.1592893918
   C        -3.1314009153        -0.9719442703        -1.0978140878
   H        -3.0730232513        -2.1454128139         1.4331387695
   H        -1.4462656037        -2.3139675906         0.7233520004
   H        -1.7000883232        -1.2099030487         2.0771599596
   H        -3.3292685125        -0.1857253361        -1.8381190824
   H        -2.4740511691        -1.7155902890        -1.5705423320
   H        -4.0794623436        -1.4761465775        -0.8551982558
   H        -3.5747720545         1.4771910767         0.2976759579
   H        -4.2391228103         0.1857927351         1.3266536396
   H        -2.7328889180         1.0133252708         1.7796488716
   C         0.0769046906         0.1507562847         1.1328053719
   O         0.2692684935         0.2927342135         2.3279688354
   O        -0.0702968289         0.1020587136        -1.0339685081
