      24
best product-like step 214
   C        -2.5300000000        -0.4310000000         0.2580000000
   C        -3.4490000000         1.4700000000        -0.2120000000
   H        -4.4470000000         1.0080000000        -0.1190000000
   C        -2.6820000000         0.9220000000        -1.4730000000
   H        -3.2900000000         1.0410000000        -2.3810000000
   B        -2.5050000000        -1.5700000000         1.0690000000
   N        -2.4640000000        -0.4780000000        -1.1460000000
   N        -2.5110000000         0.9280000000         0.7790000000
   C        -2.7080000000        -1.6800000000        -1.9370000000
   H        -2.7310000000        -2.5530000000        -1.2610000000
   H        -3.6940000000        -1.6280000000        -2.4390000000
   H        -1.9460000000        -1.8130000000        -2.7260000000
   C        -3.0340000000         1.1380000000         2.1380000000
   H        -2.2500000000         0.7780000000         2.8210000000
   H        -3.2430000000         2.1910000000         2.3470000000
   H        -3.9240000000         0.5310000000         2.3610000000
   N         0.7280000000        -2.8180000000         1.6370000000
   N         0.6760000000        -2.5730000000         0.5030000000
   H        -1.7280000000         1.4460000000        -1.5850000000
   H        -3.5470000000         2.5630000000        -0.1960000000
   H        -2.5490000000        -2.0420000000         2.1920000000
   C         1.3590000000         0.2250000000        -0.0260000000
   O         2.1450000000        -0.4960000000         0.1390000000
   O         0.4160000000         0.8060000000         0.0060000000
