      24
final step 1000
   C        -3.6610000000         1.3680000000        -1.3680000000
   C        -3.6650000000         2.1050000000         0.9140000000
   H        -2.9680000000         1.9440000000         1.7270000000
   C        -4.8130000000         1.0650000000         0.7960000000
   H        -4.3190000000         0.1020000000         1.0890000000
   B        -3.4690000000        -5.8990000000        -0.4520000000
   N        -4.9370000000         0.9990000000        -0.7520000000
   N        -2.9130000000         1.8380000000        -0.3480000000
   C        -5.2210000000        -0.4360000000        -0.9540000000
   H        -6.1050000000        -0.7550000000        -0.3890000000
   H        -5.2410000000        -0.7620000000        -2.0000000000
   H        -4.4690000000        -1.0890000000        -0.5100000000
   C        -1.7750000000         2.8070000000        -0.3780000000
   H        -2.1750000000         3.8070000000        -0.1530000000
   H        -1.0130000000         2.4780000000         0.3380000000
   H        -1.3600000000         2.7790000000        -1.3960000000
   N         5.8970000000        -0.7400000000        -0.1450000000
   N         6.6720000000        -0.6880000000         0.7160000000
   H        -5.7020000000         1.1090000000         1.4400000000
   H        -4.0360000000         3.1390000000         0.8630000000
   H        -2.6290000000        -5.7510000000        -1.4980000000
   C         3.4430000000        -0.5560000000         1.5920000000
   O         2.4050000000        -0.6930000000         1.2650000000
   O        -4.0430000000        -5.5130000000         0.5000000000
