      24
best bond-forming step 604
   C        -2.6200000000         0.2820000000        -0.9630000000
   C        -3.5040000000         2.1790000000         0.1630000000
   H        -3.5810000000         2.4200000000         1.2450000000
   C        -4.6470000000         1.3950000000        -0.3620000000
   H        -5.3970000000         1.2100000000         0.4250000000
   B        -1.4750000000        -3.2040000000         0.5050000000
   N        -3.9530000000         0.1180000000        -0.9580000000
   N        -2.3290000000         1.3890000000        -0.1780000000
   C        -4.4190000000        -1.1640000000        -1.4420000000
   H        -4.3140000000        -1.9300000000        -0.5900000000
   H        -5.3800000000        -1.1150000000        -1.9920000000
   H        -3.6470000000        -1.4020000000        -2.2000000000
   C        -1.4020000000         1.1740000000         0.9050000000
   H        -1.3880000000         1.9970000000         1.6500000000
   H        -1.7220000000         0.2560000000         1.4300000000
   H        -0.4100000000         1.0520000000         0.4910000000
   N         3.1220000000        -1.6710000000         0.9530000000
   N         4.0590000000        -2.3270000000         1.0950000000
   H        -5.2070000000         1.7860000000        -1.2370000000
   H        -3.3480000000         3.1390000000        -0.3450000000
   H        -0.5690000000        -3.9320000000        -0.2530000000
   C         1.4020000000        -0.4100000000         0.6340000000
   O         2.0440000000         0.4320000000         0.3010000000
   O        -2.3800000000        -2.6490000000         0.8620000000
