      39
best bond-forming step 1487
   C        -2.4670000000        -0.0640000000        -0.7040000000
   C        -4.6630000000        -0.2290000000        -0.2490000000
   H        -5.1830000000        -1.1960000000        -0.3740000000
   C        -4.4860000000         0.4920000000        -1.5960000000
   H        -5.0000000000        -0.1080000000        -2.3600000000
   B        -1.0670000000        -0.5010000000        -0.3530000000
   N        -3.1030000000         0.4270000000        -1.8230000000
   N        -3.3590000000        -0.2830000000         0.3550000000
   C        -2.7980000000         0.5630000000        -3.2820000000
   H        -3.2990000000        -0.2560000000        -3.8220000000
   H        -3.2830000000         1.5070000000        -3.5540000000
   H        -1.7520000000         0.6440000000        -3.5730000000
   C        -3.2530000000         0.3750000000         1.6480000000
   H        -3.7670000000         1.3430000000         1.7510000000
   H        -3.6570000000        -0.3660000000         2.3550000000
   H        -2.1870000000         0.5510000000         1.8510000000
   N        -0.2320000000         0.2670000000        -1.1690000000
   N         0.4060000000         1.1520000000        -1.5990000000
   H        -4.9740000000         1.4840000000        -1.6330000000
   H        -5.3380000000         0.2830000000         0.4390000000
   C        -0.7150000000        -1.6910000000         0.6590000000
   C        -0.4090000000        -2.9090000000        -0.2860000000
   C        -1.6270000000        -2.5490000000         1.6390000000
   C         0.6450000000        -0.9620000000         1.3090000000
   H        -2.0930000000        -3.3240000000         1.0370000000
   H        -0.8710000000        -3.0170000000         2.2910000000
   H        -2.3710000000        -1.9720000000         2.1640000000
   H         1.3720000000        -0.7230000000         0.5160000000
   H         0.3290000000         0.0440000000         1.6170000000
   H         1.1800000000        -1.4910000000         2.1230000000
   H         0.1770000000        -2.5070000000        -1.1150000000
   H         0.1400000000        -3.7170000000         0.2170000000
   H        -1.3340000000        -3.4330000000        -0.6240000000
   C         0.3770000000         2.8560000000         1.5270000000
   C         1.7300000000         3.4020000000         1.4940000000
   H         2.3580000000         2.6880000000         0.9290000000
   H         1.7160000000         4.3180000000         0.8850000000
   H         2.0670000000         3.7710000000         2.4560000000
   N        -0.6510000000         2.3660000000         1.3330000000
