      39
best product-like step 94
   C        -2.5440000000         0.9050000000        -0.2140000000
   C        -4.4750000000         2.0410000000         0.4360000000
   H        -5.4470000000         1.5340000000         0.3860000000
   C        -3.9400000000         2.4620000000        -0.9510000000
   H        -4.7460000000         2.7280000000        -1.6380000000
   B        -1.4190000000        -0.1120000000        -0.2480000000
   N        -3.1750000000         1.3410000000        -1.3730000000
   N        -3.4140000000         1.1360000000         0.8650000000
   C        -2.9180000000         1.1740000000        -2.8090000000
   H        -2.0620000000         1.7510000000        -3.1730000000
   H        -2.7900000000         0.1350000000        -3.0890000000
   H        -3.8170000000         1.5690000000        -3.2890000000
   C        -2.9570000000         1.0180000000         2.2250000000
   H        -2.0650000000         0.3970000000         2.2270000000
   H        -2.6980000000         1.9970000000         2.6550000000
   H        -3.7050000000         0.5520000000         2.8740000000
   N        -0.9170000000        -0.0070000000        -1.6310000000
   N        -0.3250000000         0.3230000000        -2.5840000000
   H        -3.2760000000         3.3390000000        -0.8440000000
   H        -4.5810000000         2.9330000000         1.0660000000
   C        -1.5000000000        -1.5780000000         0.5870000000
   C        -1.3430000000        -2.5730000000        -0.5870000000
   C        -3.0120000000        -1.8250000000         1.0010000000
   C        -0.4490000000        -1.8530000000         1.7260000000
   H        -3.1630000000        -2.9050000000         1.1120000000
   H        -3.3400000000        -1.3470000000         1.9210000000
   H        -3.6580000000        -1.4800000000         0.1790000000
   H         0.5520000000        -1.8290000000         1.3550000000
   H        -0.4510000000        -1.1540000000         2.5650000000
   H        -0.6230000000        -2.8740000000         2.1360000000
   H        -0.3810000000        -2.4790000000        -1.0750000000
   H        -1.4410000000        -3.6230000000        -0.2450000000
   H        -2.1180000000        -2.3940000000        -1.3420000000
   C         2.3120000000         0.1280000000         1.0390000000
   C         3.0860000000         0.0110000000        -0.3530000000
   H         2.3370000000         0.4490000000        -1.0310000000
   H         4.0530000000         0.5350000000        -0.3760000000
   H         3.2220000000        -1.0480000000        -0.5310000000
   N         1.5470000000         0.1370000000         1.9140000000
