      39
best TS-like step 1978
   C        -2.3640000000        -0.4300000000        -0.5760000000
   C        -4.3240000000         0.9020000000        -0.5910000000
   H        -5.3990000000         0.6550000000        -0.5330000000
   C        -3.8450000000         0.6230000000        -2.0740000000
   H        -4.6380000000         0.2020000000        -2.7010000000
   B        -0.8900000000        -0.5900000000         0.0790000000
   N        -2.7170000000        -0.3260000000        -1.9420000000
   N        -3.5100000000        -0.0420000000         0.1200000000
   C        -1.7260000000        -0.1300000000        -2.9790000000
   H        -1.8370000000        -0.8690000000        -3.7780000000
   H        -1.9900000000         0.7690000000        -3.5590000000
   H        -0.6710000000        -0.1430000000        -2.7170000000
   C        -3.5900000000        -0.2300000000         1.5600000000
   H        -3.7780000000         0.7360000000         2.0740000000
   H        -4.4220000000        -0.9170000000         1.8040000000
   H        -2.6620000000        -0.6530000000         1.9100000000
   N        -0.0390000000         0.4270000000        -0.5660000000
   N         0.6890000000         1.1160000000        -1.1310000000
   H        -3.4610000000         1.5590000000        -2.5110000000
   H        -4.0480000000         1.9260000000        -0.2490000000
   C        -0.3100000000        -2.0820000000         0.6340000000
   C        -0.5420000000        -3.3470000000        -0.2850000000
   C        -1.3570000000        -2.4540000000         1.6930000000
   C         1.1160000000        -1.9980000000         0.9550000000
   H        -2.1530000000        -2.6780000000         0.9620000000
   H        -0.9950000000        -3.3630000000         2.1930000000
   H        -1.6380000000        -1.7920000000         2.5450000000
   H         1.8490000000        -1.7690000000         0.1790000000
   H         1.0590000000        -1.3060000000         1.8240000000
   H         1.5550000000        -2.9400000000         1.3920000000
   H         0.2690000000        -3.5570000000        -0.9970000000
   H        -0.5990000000        -4.2190000000         0.3790000000
   H        -1.4470000000        -3.2510000000        -0.8760000000
   C        -0.6830000000         3.7110000000         1.4870000000
   C        -1.4390000000         4.8320000000         0.9840000000
   H        -2.3940000000         5.0900000000         1.4220000000
   H        -0.7580000000         5.7040000000         1.0090000000
   H        -1.7290000000         4.6360000000        -0.0620000000
   N        -0.0040000000         2.7770000000         1.7160000000
