      39
final step 2000
   C        -2.3280000000        -0.4470000000        -0.6150000000
   C        -4.2610000000         0.9970000000        -0.6090000000
   H        -5.3360000000         0.8940000000        -0.3510000000
   C        -3.8950000000         0.6070000000        -2.0270000000
   H        -4.7050000000         0.1210000000        -2.5870000000
   B        -0.8030000000        -0.6310000000        -0.0260000000
   N        -2.6910000000        -0.2640000000        -1.9250000000
   N        -3.4180000000        -0.0420000000         0.0990000000
   C        -1.7570000000        -0.1280000000        -3.1080000000
   H        -1.9540000000        -0.9160000000        -3.8290000000
   H        -1.7670000000         0.9280000000        -3.4190000000
   H        -0.7470000000        -0.2210000000        -2.6990000000
   C        -3.4690000000        -0.2920000000         1.5070000000
   H        -3.6670000000         0.6340000000         2.0880000000
   H        -4.1410000000        -1.1080000000         1.8280000000
   H        -2.4570000000        -0.5130000000         1.8210000000
   N         0.0010000000         0.4080000000        -0.5690000000
   N         0.7500000000         1.0330000000        -1.2410000000
   H        -3.6490000000         1.5110000000        -2.6120000000
   H        -4.0440000000         2.0320000000        -0.2500000000
   C        -0.3150000000        -2.0720000000         0.6480000000
   C        -0.5650000000        -3.4000000000        -0.1740000000
   C        -1.4440000000        -2.4650000000         1.7020000000
   C         1.2370000000        -1.9580000000         1.0630000000
   H        -2.4590000000        -2.4440000000         1.2560000000
   H        -1.4340000000        -3.5000000000         2.0500000000
   H        -1.6210000000        -1.7710000000         2.5720000000
   H         1.6880000000        -1.5520000000         0.1440000000
   H         1.5620000000        -1.1260000000         1.7330000000
   H         1.6670000000        -2.9320000000         1.4170000000
   H         0.2400000000        -3.7660000000        -0.8140000000
   H        -0.8440000000        -4.2220000000         0.4940000000
   H        -1.4740000000        -3.2690000000        -0.7570000000
   C        -0.8380000000         3.7220000000         1.5070000000
   C        -1.5290000000         4.8920000000         1.0340000000
   H        -2.3170000000         5.0990000000         1.7550000000
   H        -0.8950000000         5.7950000000         0.9110000000
   H        -1.8910000000         4.5640000000         0.0530000000
   N        -0.1780000000         2.7680000000         1.7360000000
