      36
Step =        0, E =      0.00000000
   C        -2.1660336499         0.4375283905        -0.6534875008
   C         0.1185816704         0.9205401868        -0.8397331054
   H         0.5501590457         1.5641641711        -0.0533406233
   C        -0.6521732022         1.7321085220        -1.8846315377
   H        -0.3968373902         2.8017238085        -1.8594851558
   B        -3.4804705689        -0.1748227678        -0.2154587034
   N        -2.0298928424         1.5249873801        -1.4730768374
   N        -0.9005199096         0.0353589916        -0.2915476834
   C        -3.0732862730         2.4506772253        -1.8275925166
   H        -3.6150027407         2.1664512555        -2.7468732561
   H        -3.8040138301         2.4984854518        -1.0061343095
   H        -2.6351236135         3.4490604828        -1.9768869262
   C        -0.5506173501        -1.3258555199         0.0318875488
   H        -1.4656295254        -1.9214895949         0.1193063463
   H         0.0735493506        -1.7694480170        -0.7656982665
   H         0.0062877136        -1.3897202047         0.9808393612
   N        -4.4792880105        -0.0082343029        -1.2169276487
   N        -5.2792573652         0.0572365246        -2.0237938561
   H        -0.4766711076         1.3644620920        -2.9126108569
   H         0.9377615697         0.3361949831        -1.2847091612
   C        -3.9479988797        -0.8964801569         1.1625264015
   C        -5.3390949331        -0.3539505501         1.5491127455
   C        -2.9911771799        -0.5519978262         2.3163250660
   C        -4.0668971376        -2.4264402721         1.0331929867
   H        -3.3672367634        -0.9698687916         3.2672157010
   H        -1.9797912361        -0.9557595278         2.1643928035
   H        -2.8963305590         0.5385919035         2.4420831441
   H        -4.7599131105        -2.7035835181         0.2225060504
   H        -3.0987428302        -2.9041913562         0.8125961395
   H        -4.4471447506        -2.8784200019         1.9676909762
   H        -6.0946270741        -0.5686058358         0.7759916384
   H        -5.6913302093        -0.8163437763         2.4884726788
   H        -5.3154767245         0.7376406508         1.6978483569
   C         2.6458860429         0.0000000000         0.0000000000
   O         1.6787659892         0.6029254831        -0.2296069856
   O         3.6130060967        -0.6029254831         0.2296069856
