      36
final step 1000
   C        -2.0490000000         0.9610000000        -0.3380000000
   C        -2.2670000000         2.6570000000         1.1760000000
   H        -2.3990000000         2.7950000000         2.2500000000
   C        -3.5760000000         2.5550000000         0.4630000000
   H        -4.2500000000         1.9020000000         1.0530000000
   B        -1.5960000000        -0.3390000000        -1.0490000000
   N        -3.0750000000         1.8000000000        -0.7480000000
   N        -1.7530000000         1.3170000000         0.9550000000
   C        -4.0110000000         1.4780000000        -1.8160000000
   H        -4.8920000000         0.9340000000        -1.4480000000
   H        -4.3770000000         2.4350000000        -2.2150000000
   H        -3.5250000000         0.9190000000        -2.6300000000
   C        -1.1650000000         0.7730000000         2.1830000000
   H        -0.6520000000        -0.1670000000         2.0200000000
   H        -0.4120000000         1.5140000000         2.5000000000
   H        -1.9320000000         0.6550000000         2.9580000000
   N        -1.0390000000        -0.3180000000        -2.3380000000
   N        -0.8110000000        -0.4100000000        -3.4540000000
   H        -4.0990000000         3.4800000000         0.2010000000
   H        -1.5840000000         3.4270000000         0.7670000000
   C        -2.1630000000        -1.9020000000        -0.9470000000
   C        -1.1500000000        -3.0590000000        -0.7910000000
   C        -2.9270000000        -2.2780000000        -2.2610000000
   C        -3.0440000000        -1.8010000000         0.3680000000
   H        -3.3000000000        -3.3020000000        -2.2090000000
   H        -3.7840000000        -1.6150000000        -2.4190000000
   H        -2.2820000000        -2.2110000000        -3.1590000000
   H        -2.4680000000        -1.3960000000         1.2030000000
   H        -3.8800000000        -1.1100000000         0.2260000000
   H        -3.4770000000        -2.7460000000         0.7140000000
   H        -0.7270000000        -3.2040000000         0.2100000000
   H        -1.7420000000        -3.9580000000        -0.9710000000
   H        -0.3010000000        -3.0270000000        -1.4910000000
   C         1.9760000000         0.2130000000         0.9170000000
   S         1.3160000000        -1.2090000000         1.0140000000
   S         2.6390000000         1.6370000000         0.8720000000
