      36
best bond-forming step 299
   C        -2.4160000000         1.1380000000        -0.3670000000
   C        -3.6400000000         2.7960000000         0.7700000000
   H        -4.5670000000         2.4430000000         1.2580000000
   C        -3.8230000000         2.9500000000        -0.7550000000
   H        -4.8600000000         3.0210000000        -1.0960000000
   B        -1.5180000000        -0.1320000000        -0.5220000000
   N        -3.1660000000         1.7530000000        -1.3880000000
   N        -2.5980000000         1.8010000000         0.8200000000
   C        -3.9780000000         0.8390000000        -2.2360000000
   H        -4.5530000000         1.4010000000        -2.9700000000
   H        -3.3250000000         0.1440000000        -2.7760000000
   H        -4.6660000000         0.2450000000        -1.6200000000
   C        -1.8040000000         1.6390000000         2.0510000000
   H        -0.7460000000         1.5910000000         1.8130000000
   H        -1.9120000000         2.5400000000         2.6550000000
   H        -2.0610000000         0.7610000000         2.6530000000
   N        -1.0320000000        -0.2140000000        -1.9050000000
   N        -0.4620000000        -0.5080000000        -2.8580000000
   H        -3.2910000000         3.8420000000        -1.0950000000
   H        -3.3150000000         3.7220000000         1.2620000000
   C        -1.6620000000        -1.7270000000         0.0980000000
   C        -1.1620000000        -2.6450000000        -1.0410000000
   C        -3.1410000000        -2.1770000000         0.3480000000
   C        -0.8880000000        -2.1300000000         1.3930000000
   H        -3.1450000000        -3.2150000000         0.7280000000
   H        -3.6710000000        -1.5430000000         1.0970000000
   H        -3.6990000000        -2.2040000000        -0.6020000000
   H         0.1940000000        -2.0230000000         1.3270000000
   H        -1.2000000000        -1.5420000000         2.2590000000
   H        -1.1060000000        -3.1790000000         1.6070000000
   H        -0.1220000000        -2.4230000000        -1.3320000000
   H        -1.2230000000        -3.7100000000        -0.7990000000
   H        -1.7780000000        -2.4800000000        -1.9280000000
   C         2.1320000000        -0.1080000000         0.4880000000
   S         0.7600000000         0.4300000000         1.0470000000
   S         3.3920000000        -0.6960000000        -0.2760000000
