      36
best product-like step 203
   C        -2.4510000000         1.0560000000        -0.3970000000
   C        -4.0570000000         2.4810000000         0.6150000000
   H        -4.9700000000         1.8520000000         0.7260000000
   C        -3.8170000000         2.9410000000        -0.8380000000
   H        -4.7180000000         3.2130000000        -1.3950000000
   B        -1.4970000000        -0.2090000000        -0.5560000000
   N        -3.1300000000         1.7710000000        -1.4450000000
   N        -2.8200000000         1.7050000000         0.7840000000
   C        -3.7240000000         1.2310000000        -2.7180000000
   H        -3.5180000000         1.9340000000        -3.5410000000
   H        -3.3130000000         0.2590000000        -2.9930000000
   H        -4.8230000000         1.1250000000        -2.6400000000
   C        -2.4120000000         1.4530000000         2.1580000000
   H        -1.5320000000         0.8110000000         2.2630000000
   H        -2.1720000000         2.4130000000         2.6510000000
   H        -3.2400000000         0.9930000000         2.7320000000
   N        -0.9890000000        -0.0830000000        -1.8970000000
   N        -0.4550000000        -0.0640000000        -2.8850000000
   H        -3.1310000000         3.8130000000        -0.8510000000
   H        -4.1180000000         3.3320000000         1.3040000000
   C        -1.4140000000        -1.7340000000         0.3000000000
   C        -0.9510000000        -2.8630000000        -0.7160000000
   C        -2.8720000000        -1.6900000000         0.8490000000
   C        -0.5420000000        -2.0340000000         1.5880000000
   H        -3.1920000000        -2.6110000000         1.3830000000
   H        -2.8950000000        -0.8950000000         1.5920000000
   H        -3.6390000000        -1.4820000000         0.0920000000
   H         0.4930000000        -2.2850000000         1.3480000000
   H        -0.5380000000        -1.2240000000         2.3260000000
   H        -0.9830000000        -2.9070000000         2.1040000000
   H         0.1030000000        -2.6960000000        -0.9420000000
   H        -1.0260000000        -3.8590000000        -0.2330000000
   H        -1.4990000000        -2.9320000000        -1.6700000000
   C         2.0610000000        -0.2610000000         0.3180000000
   S         1.3010000000         0.0160000000         1.6780000000
   S         2.8170000000        -0.5200000000        -1.0570000000
