      36
Step =        0, E =     -7.61461584
   C        -3.9873089851         0.5699158993        -0.0445191290
   C        -4.9217663132         2.6470010011        -0.5215262332
   H        -5.9256663679         3.0773472761        -0.6157857225
   C        -4.4029289676         2.0306773460        -1.8226129600
   H        -5.2317637096         1.6562866973        -2.4497910511
   B        -3.3180290629        -0.5752866920         0.7840708043
   N        -3.5902310308         0.9219254557        -1.3143684418
   N        -4.9190335733         1.4834682851         0.3790726577
   C        -3.0590158378        -0.0322736130        -2.2723127934
   H        -2.4346539922         0.4909963566        -3.0045558159
   H        -2.4325750729        -0.7701658952        -1.7663041481
   H        -3.8647794070        -0.5652133995        -2.8048615265
   C        -5.2264845606         1.7208818299         1.7802884383
   H        -5.2114372283         0.7784749253         2.3317808875
   H        -4.5029080347         2.4105193500         2.2450719067
   H        -6.2331453499         2.1491777528         1.8569763217
   N        -1.9723108323        -0.1785335310         0.8988625457
   N        -0.8861034235         0.2202946558         0.9377454663
   H        -3.7984025045         2.7246191146        -2.4177349878
   H        -4.2364296140         3.4276441343        -0.1463124543
   C        -3.8567125924        -2.0418274966         1.1832879304
   C        -3.4949578707        -2.9563890445        -0.0148300861
   C        -5.3882247108        -2.0253113290         1.3606907567
   C        -3.2064719557        -2.6360709748         2.4483005208
   H        -5.7783638973        -3.0543235700         1.3555968424
   H        -5.6779820390        -1.5712545802         2.3182459175
   H        -5.8942437488        -1.4734463171         0.5573600959
   H        -2.1326663468        -2.8199419795         2.3117387952
   H        -3.3325490129        -1.9927160855         3.3290881142
   H        -3.6760001421        -3.6062897618         2.6782971889
   H        -2.4251691203        -2.8901328300        -0.2543927013
   H        -3.7224500809        -4.0105714272         0.2092038180
   H        -4.0568381673        -2.6749023395        -0.9144726508
   C         0.2137726449         0.9413884805        -2.1300372598
   O         0.2953660324        -0.2083030994        -2.3423278455
   O         0.1379515583         2.1035326915        -1.9544929185
