      37
final step 1000
   C        -2.3530000000        -0.2350000000         0.2050000000
   C        -2.9800000000        -0.7550000000         2.4020000000
   H        -2.9060000000        -1.8570000000         2.4920000000
   C        -4.1850000000        -0.2250000000         1.6540000000
   H        -5.1210000000        -0.7810000000         1.7930000000
   B        -1.4990000000        -0.2750000000        -1.0390000000
   N        -3.7310000000        -0.2740000000         0.2710000000
   N        -1.8770000000        -0.1600000000         1.5620000000
   C        -4.7270000000        -0.4830000000        -0.7480000000
   H        -4.2990000000        -0.5060000000        -1.7480000000
   H        -5.2610000000        -1.4310000000        -0.5740000000
   H        -5.5000000000         0.2930000000        -0.6860000000
   C        -0.5740000000        -0.4930000000         2.2370000000
   H        -0.2810000000        -1.5410000000         2.1150000000
   H         0.2700000000         0.1480000000         1.9740000000
   H        -0.8040000000        -0.3360000000         3.2980000000
   N        -1.9730000000         0.5690000000        -2.0890000000
   N        -2.1920000000         1.1460000000        -3.0510000000
   H        -4.3670000000         0.8030000000         1.9970000000
   H        -2.9430000000        -0.3070000000         3.4020000000
   C         0.0920000000        -0.7380000000        -1.2030000000
   C         0.2260000000        -1.1440000000        -2.6670000000
   C         0.5810000000        -2.0840000000        -0.5230000000
   C         0.9080000000         0.5120000000        -0.7410000000
   H         1.5710000000        -1.9490000000        -0.0410000000
   H        -0.1720000000        -2.5080000000         0.1540000000
   H         0.7130000000        -2.8230000000        -1.3090000000
   H         0.6330000000         1.4200000000        -1.3010000000
   H         0.6450000000         0.7410000000         0.3020000000
   H         2.0010000000         0.3510000000        -0.7590000000
   H         0.0470000000        -0.3550000000        -3.4320000000
   H         1.2180000000        -1.5540000000        -2.9480000000
   H        -0.4920000000        -1.9840000000        -2.8400000000
   C        -1.8510000000         3.6570000000        -0.3760000000
   H        -1.8930000000         4.6570000000         0.1170000000
   H        -2.0020000000         3.7630000000        -1.5020000000
   O        -1.6030000000         2.5910000000         0.1750000000
