      37
best product-like step 817
   C        -2.3720000000        -0.1650000000         0.2850000000
   C        -3.5660000000        -0.0300000000         2.3440000000
   H        -4.2270000000        -0.7270000000         2.8720000000
   C        -4.3030000000         0.7850000000         1.3090000000
   H        -5.3390000000         0.4490000000         1.2450000000
   B        -1.0940000000         0.0510000000        -0.6410000000
   N        -3.5970000000         0.4640000000         0.0250000000
   N        -2.4150000000        -0.7280000000         1.6360000000
   C        -4.6690000000        -0.0050000000        -0.8710000000
   H        -4.3020000000        -0.2240000000        -1.8710000000
   H        -5.1580000000        -0.9030000000        -0.4750000000
   H        -5.4450000000         0.7650000000        -0.9230000000
   C        -1.1920000000        -0.6870000000         2.4910000000
   H        -1.0270000000        -1.6450000000         2.9990000000
   H        -0.3240000000        -0.4770000000         1.8600000000
   H        -1.2950000000         0.1000000000         3.2400000000
   N        -1.6530000000         0.5610000000        -2.0070000000
   N        -1.9560000000         1.0750000000        -2.9900000000
   H        -4.3440000000         1.8670000000         1.4840000000
   H        -3.1750000000         0.6820000000         3.0830000000
   C         0.1420000000        -1.0620000000        -0.8860000000
   C         0.1640000000        -1.1210000000        -2.4390000000
   C        -0.2460000000        -2.4780000000        -0.5500000000
   C         1.5320000000        -0.7760000000        -0.2190000000
   H         0.2850000000        -3.2140000000        -1.1680000000
   H        -0.1200000000        -2.7860000000         0.4900000000
   H        -1.3160000000        -2.6820000000        -0.7580000000
   H         1.9270000000         0.1820000000        -0.5770000000
   H         1.4710000000        -0.7170000000         0.8700000000
   H         2.2550000000        -1.5720000000        -0.4480000000
   H         0.4290000000        -0.1940000000        -2.9510000000
   H         0.8590000000        -1.9180000000        -2.7600000000
   H        -0.8380000000        -1.4520000000        -2.6990000000
   C        -1.5880000000         2.5860000000        -0.3110000000
   H        -1.4650000000         2.3740000000         0.7730000000
   H        -2.6570000000         2.3690000000        -0.5930000000
   O        -0.7770000000         3.2650000000        -0.9540000000
