      37
best TS-like step 942
   C        -2.2630000000        -0.0700000000         0.3940000000
   C        -3.2410000000        -0.6620000000         2.3960000000
   H        -3.3080000000        -1.7480000000         2.1720000000
   C        -4.2870000000         0.0920000000         1.6080000000
   H        -5.2140000000        -0.4960000000         1.5430000000
   B        -1.4000000000        -0.1380000000        -0.8840000000
   N        -3.6360000000         0.1190000000         0.3030000000
   N        -2.0170000000        -0.0520000000         1.8220000000
   C        -4.4240000000        -0.3830000000        -0.7940000000
   H        -3.8030000000        -0.5220000000        -1.6740000000
   H        -4.8800000000        -1.3620000000        -0.5280000000
   H        -5.2290000000         0.3230000000        -1.0570000000
   C        -0.8130000000        -0.6780000000         2.3660000000
   H        -0.9180000000        -1.7810000000         2.4480000000
   H         0.0730000000        -0.4670000000         1.7570000000
   H        -0.6030000000        -0.3010000000         3.3760000000
   N        -1.8230000000         0.5530000000        -2.0800000000
   N        -1.9330000000         1.0390000000        -3.1170000000
   H        -4.5250000000         1.0890000000         2.0260000000
   H        -3.3190000000        -0.5510000000         3.4840000000
   C        -0.0470000000        -0.9200000000        -1.2570000000
   C         0.4320000000        -1.0640000000        -2.7380000000
   C         0.0580000000        -2.2740000000        -0.4790000000
   C         0.8290000000         0.3170000000        -0.7520000000
   H         1.1130000000        -2.5500000000        -0.3650000000
   H        -0.4400000000        -2.2280000000         0.4880000000
   H        -0.4810000000        -3.0330000000        -1.0830000000
   H         0.6120000000         1.2080000000        -1.3530000000
   H         0.6140000000         0.6460000000         0.2570000000
   H         1.9120000000         0.0960000000        -0.7920000000
   H         0.5190000000        -0.1220000000        -3.2730000000
   H         1.4600000000        -1.4460000000        -2.7040000000
   H        -0.1240000000        -1.7510000000        -3.3840000000
   C        -1.9630000000         3.4030000000        -0.2720000000
   H        -2.1020000000         4.0820000000         0.6100000000
   H        -2.4970000000         3.8270000000        -1.1370000000
   O        -1.2080000000         2.4390000000        -0.3300000000
