      36
best bond-forming step 1768
   C        -2.1100000000         0.7620000000         0.4490000000
   C        -3.5030000000         1.8820000000         1.9620000000
   H        -4.5220000000         1.4280000000         2.1440000000
   C        -3.2020000000         2.7700000000         0.6320000000
   H        -4.3570000000         3.2980000000         0.3720000000
   B        -1.2100000000        -0.3070000000        -0.5880000000
   N        -2.8130000000         1.9820000000        -0.1350000000
   N        -2.5220000000         0.7010000000         1.5450000000
   C        -2.3370000000         2.5420000000        -1.6410000000
   H        -1.8860000000         3.5670000000        -1.5010000000
   H        -2.0220000000         1.8060000000        -2.3380000000
   H        -3.5110000000         2.9310000000        -1.8780000000
   C        -2.2600000000        -0.3380000000         2.4470000000
   H        -1.8090000000        -1.1130000000         2.0150000000
   H        -1.8560000000         0.2450000000         3.4280000000
   H        -3.3290000000        -0.8090000000         2.8010000000
   N        -1.5500000000        -0.4450000000        -2.0240000000
   N        -1.8380000000        -1.5410000000        -2.2180000000
   H        -2.7020000000         3.6690000000         0.8160000000
   H        -3.1820000000         2.3850000000         2.9530000000
   C         0.5020000000         0.1060000000        -0.5220000000
   C         1.2730000000        -0.8110000000        -1.1330000000
   C         0.6270000000         1.7950000000        -0.8360000000
   C         0.7290000000         0.0490000000         1.1340000000
   H         0.6550000000         1.7020000000        -1.9830000000
   H         0.1810000000         2.3760000000        -0.2280000000
   H         1.8810000000         1.6700000000        -0.3340000000
   H         0.2280000000         0.9730000000         1.6940000000
   H         0.5770000000        -1.0390000000         1.7050000000
   H         1.6880000000         0.1970000000         1.3030000000
   H         2.0560000000        -0.7310000000        -0.9660000000
   H         1.1580000000        -1.7580000000        -0.6340000000
   H         0.9800000000        -0.8650000000        -2.2140000000
   C        -1.8300000000        -2.0510000000        -1.2030000000
   O        -1.5640000000        -1.2320000000        -0.2680000000
   O        -2.3990000000        -3.3380000000        -1.0350000000
