      36
final step 5000
   C         6.9100000000         6.1930000000        -9.3620000000
   C       -13.5730000000        -9.9420000000       -17.8860000000
   H       -22.2710000000        52.9350000000       -64.7600000000
   C       -37.8480000000        15.7980000000       -53.2350000000
   H       -23.4650000000        35.3900000000       -88.2420000000
   B         6.1960000000         5.3450000000       -10.8950000000
   N       -37.0750000000        15.7580000000       -54.0540000000
   N         6.4710000000         5.0730000000        -9.3150000000
   C       -13.3480000000        -8.7740000000       -17.9360000000
   H       -31.9290000000        47.1010000000       -75.3460000000
   H       -13.1500000000        -7.9030000000       -17.8930000000
   H       -28.8230000000        46.5400000000      -101.7770000000
   C       -26.1100000000       -12.9670000000        50.8450000000
   H       -47.3630000000        27.2030000000       -77.6510000000
   H       -33.0020000000        22.1970000000       -80.3990000000
   H       -32.3790000000        22.7660000000       -80.1860000000
   N       -48.0120000000       -11.2330000000       -22.6380000000
   N       -48.4870000000       -10.6260000000       -21.8590000000
   H       -23.9860000000        34.6470000000       -88.1510000000
   H       -38.5590000000        16.2650000000       -52.2970000000
   C         6.3540000000         5.7850000000       -12.3490000000
   C        30.9200000000       -19.2320000000       -42.3950000000
   C       266.2370000000       -95.5980000000       402.8420000000
   C         1.2240000000       -19.6270000000       -65.7950000000
   H      -251.6980000000       187.3090000000      -439.6070000000
   H       -26.6270000000        14.9810000000       -79.3570000000
   H       -17.3860000000        66.1680000000       -87.8410000000
   H       -36.7340000000        31.3030000000       -85.2540000000
   H         2.1850000000       -19.6440000000       -66.2910000000
   H       -33.0150000000        45.9400000000       -74.9330000000
   H       -37.0090000000        31.4140000000       -84.4910000000
   H        30.1600000000       -18.1950000000       -42.1210000000
   H       -39.8830000000        53.7190000000       -98.2270000000
   C        14.5210000000        24.6290000000        65.8960000000
   O       -25.8620000000       -12.6290000000        49.9170000000
   O       -22.0240000000        53.9430000000       -64.1230000000
