      36
best product-like step 244
   C        -2.4660000000         1.1170000000        -0.2270000000
   C        -4.1360000000         2.2630000000         0.9470000000
   H        -5.1310000000         1.7950000000         0.9730000000
   C        -3.9510000000         2.8140000000        -0.4520000000
   H        -4.8620000000         3.0600000000        -0.9950000000
   B        -1.0660000000         0.6570000000        -0.6940000000
   N        -3.3300000000         1.6690000000        -1.1100000000
   N        -3.0960000000         1.2140000000         1.0630000000
   C        -2.7810000000         1.8830000000        -2.4240000000
   H        -1.9160000000         2.6020000000        -2.3910000000
   H        -2.3770000000         0.9750000000        -2.8150000000
   H        -3.5120000000         2.1770000000        -3.1440000000
   C        -3.7420000000         0.0850000000         1.9620000000
   H        -3.5340000000        -0.9130000000         1.6050000000
   H        -3.3640000000         0.2080000000         2.9860000000
   H        -4.8240000000         0.2460000000         2.0110000000
   N        -1.1050000000        -0.2250000000        -2.3590000000
   N        -1.3770000000        -1.1770000000        -2.8540000000
   H        -3.2530000000         3.6700000000        -0.4720000000
   H        -4.0570000000         2.9820000000         1.7530000000
   C        -0.5770000000        -0.6020000000         0.6500000000
   C         0.4100000000        -2.9990000000         0.9970000000
   C        -1.1200000000        -1.2210000000        -0.5010000000
   C        -0.9130000000        -0.0280000000         1.9180000000
   H        -1.7550000000        -2.0340000000        -0.3100000000
   H        -1.7920000000        -0.5610000000        -1.0200000000
   H        -0.2540000000        -1.3330000000        -1.1200000000
   H        -1.8070000000         0.4850000000         2.0400000000
   H        -0.7890000000        -0.7050000000         2.7580000000
   H        -0.1570000000         0.7240000000         2.1140000000
   H         1.3950000000        -2.6050000000         1.2890000000
   H        -0.3220000000        -3.2190000000         1.7870000000
   H         0.4080000000        -3.2120000000        -0.0780000000
   C         0.6230000000        -0.8490000000        -0.0420000000
   O         1.3290000000        -0.7280000000         1.0610000000
   O         1.0800000000        -1.0120000000        -1.3100000000
