      36
final step 1000
   C        -2.7240000000         0.5540000000        -0.0420000000
   C        -4.5880000000         0.2630000000         0.4780000000
   H        -5.1930000000        -0.5750000000         0.3270000000
   C        -4.4070000000         1.3680000000        -0.5650000000
   H        -5.2940000000         1.2560000000        -1.2110000000
   B        -0.5230000000         0.1530000000         0.1440000000
   N        -3.0760000000         1.4050000000        -0.8240000000
   N        -3.4260000000        -0.1330000000         0.9160000000
   C        -2.5590000000         2.3390000000        -1.6860000000
   H        -2.7660000000         3.4130000000        -1.1900000000
   H        -1.6380000000         1.8650000000        -1.9090000000
   H        -3.2610000000         2.3960000000        -2.5680000000
   C        -3.2290000000        -1.3430000000         1.4050000000
   H        -2.1910000000        -1.6270000000         1.1820000000
   H        -3.4690000000        -1.1350000000         2.3650000000
   H        -3.8230000000        -2.1270000000         0.9730000000
   N         0.0560000000        -0.0870000000        -2.4390000000
   N         0.6460000000        -0.9900000000        -2.8850000000
   H        -4.8400000000         2.4120000000        -0.1110000000
   H        -5.4360000000         0.3360000000         1.2570000000
   C        -0.9180000000         1.4710000000         1.1060000000
   C         1.6120000000         1.0930000000         0.7880000000
   C         0.1150000000         2.6440000000         1.0270000000
   C        -0.8840000000         0.7460000000         2.3200000000
   H         0.3440000000         3.1250000000         0.0850000000
   H        -1.5970000000         2.3500000000         0.8690000000
   H         0.1120000000         3.0760000000         1.7990000000
   H        -1.8630000000         0.8160000000         2.7250000000
   H        -0.4660000000        -0.2770000000         2.6520000000
   H         0.0170000000         1.4050000000         2.8860000000
   H         1.6630000000         1.8530000000         1.6620000000
   H         1.6000000000        -0.3240000000         0.5620000000
   H         1.5070000000         1.4990000000        -0.6100000000
   C        -0.8140000000        -2.2060000000        -1.7070000000
   O        -1.3950000000        -1.4810000000        -0.5630000000
   O         0.1880000000        -3.1150000000        -0.8000000000
