      36
best bond-forming step 867
   C        -2.3720000000         0.5930000000        -0.0360000000
   C        -4.9750000000         0.5420000000        -0.0980000000
   H        -5.5540000000         0.1460000000        -0.8490000000
   C        -4.1730000000         1.9090000000        -0.6210000000
   H        -4.6890000000         2.0240000000        -1.5440000000
   B        -0.5930000000        -0.2420000000         0.3100000000
   N        -2.7880000000         1.6130000000        -0.8460000000
   N        -3.4320000000        -0.3770000000         0.2510000000
   C        -1.8390000000         2.9370000000        -1.3490000000
   H        -1.6720000000         3.6710000000        -0.5270000000
   H        -0.9250000000         2.7140000000        -1.8220000000
   H        -2.6430000000         3.0600000000        -2.1580000000
   C        -3.2600000000        -1.6850000000         0.8720000000
   H        -2.2030000000        -1.9020000000         0.7880000000
   H        -3.1980000000        -1.4370000000         2.1480000000
   H        -3.9330000000        -2.4450000000         0.7970000000
   N        -1.1700000000         0.1520000000        -2.3460000000
   N        -0.2660000000        -0.4430000000        -2.6640000000
   H        -4.3460000000         2.7510000000         0.1340000000
   H        -5.4380000000         0.9200000000         0.8730000000
   C        -0.8390000000         1.2170000000         1.1080000000
   C         2.0070000000         0.3660000000         0.5670000000
   C        -0.3300000000         2.4530000000         0.9050000000
   C        -0.7490000000         0.4170000000         2.8080000000
   H         0.5110000000         2.4100000000         0.2160000000
   H        -1.2910000000         3.2150000000         1.8610000000
   H         1.0040000000         2.5490000000         1.8220000000
   H        -1.7010000000         0.6010000000         3.3010000000
   H        -0.6310000000        -0.5690000000         3.0280000000
   H         0.2430000000         0.6880000000         3.0240000000
   H         1.4840000000         1.0100000000         1.5050000000
   H         1.5440000000        -0.7590000000         0.9650000000
   H         2.5060000000         0.6480000000        -0.4520000000
   C        -1.3950000000        -2.5830000000        -1.0050000000
   O         0.0470000000        -0.9850000000        -0.1360000000
   O        -0.2920000000        -3.3980000000        -1.1190000000
