      36
Step =        0, E =      0.00000000
   C        -2.3634900767        -0.6598361491         0.5775847123
   C        -3.1015138448        -2.8595542095         0.9001003783
   H        -4.1487204113        -2.9832289578         1.2271889958
   C        -2.1826428586        -2.4640538589         2.0593132810
   H        -2.6332669406        -2.6667059891         3.0420521219
   B        -2.1249879100         0.7081039557        -0.0277616088
   N        -2.0305074047        -1.0344186828         1.8510204272
   N        -2.9696008522        -1.7398982566        -0.0227162584
   C        -1.6724133108        -0.1466185465         2.9256517338
   H        -0.5869428112         0.0457477306         2.9894265027
   H        -2.1783072068         0.8191592496         2.7760302464
   H        -2.0049750896        -0.5820505363         3.8800343151
   C        -2.9327365156        -1.9973785030        -1.4412690562
   H        -2.5189286408        -1.1230207168        -1.9550109981
   H        -2.2856162935        -2.8656231261        -1.6646257196
   H        -3.9373526594        -2.2035403425        -1.8449709136
   N        -0.9621828414         1.3152778024         0.5268124071
   N        -0.0047337202         1.7981112004         0.9081699354
   H        -1.2084937625        -2.9855899328         2.0175996690
   H        -2.7860718030        -3.7963779477         0.4170099971
   C        -2.9633900527         1.5926770094        -1.1014596194
   C        -3.0262926728         3.0469427539        -0.5914694133
   C        -4.4124632308         1.0902920325        -1.2164529190
   C        -2.3165211949         1.6192606190        -2.4987770044
   H        -4.9993380548         1.7531776440        -1.8770515571
   H        -4.4784297010         0.0762302916        -1.6363763193
   H        -4.9066850479         1.0731521250        -0.2317458796
   H        -1.2802695676         1.9908005132        -2.4494465055
   H        -2.2835003391         0.6207337669        -2.9636270652
   H        -2.8764718657         2.2796343566        -3.1861794983
   H        -2.0230849312         3.4916803722        -0.4894663145
   H        -3.5963749043         3.6823067806        -1.2926063988
   H        -3.5179329006         3.1046075522         0.3930183262
   C         2.6458860429         0.0000000000         0.0000000000
   O         3.3350660400        -0.0747193978        -0.9332779048
   O         1.9567060459         0.0747193978         0.9332779048
