      36
best product-like step 642
   C        -2.3380000000         0.8600000000        -0.1970000000
   C        -2.4690000000         2.8700000000         0.8900000000
   H        -2.7030000000         3.3300000000         1.8460000000
   C        -3.8190000000         2.6950000000         0.1010000000
   H        -4.5470000000         2.4010000000         0.8790000000
   B        -1.7270000000        -0.2870000000        -1.0720000000
   N        -3.4270000000         1.5050000000        -0.6980000000
   N        -2.1690000000         1.4170000000         1.0930000000
   C        -3.9680000000         1.2530000000        -2.0750000000
   H        -3.2180000000         1.4310000000        -2.8700000000
   H        -4.3440000000         0.2180000000        -2.1500000000
   H        -4.8340000000         1.9300000000        -2.1670000000
   C        -0.8520000000         1.1340000000         1.6680000000
   H        -0.6950000000         0.1240000000         2.0770000000
   H        -0.1240000000         1.3720000000         0.8840000000
   H        -0.6680000000         1.8200000000         2.5070000000
   N        -0.9360000000         0.3650000000        -2.0320000000
   N        -0.0560000000         0.9370000000        -2.6020000000
   H        -4.2290000000         3.5230000000        -0.4830000000
   H        -1.6420000000         3.4140000000         0.3870000000
   C        -1.8870000000        -2.0350000000        -0.6100000000
   C        -1.4890000000        -3.2670000000        -1.5750000000
   C        -3.3630000000        -2.6570000000        -0.3590000000
   C        -0.9270000000        -2.1980000000         0.7470000000
   H        -3.2290000000        -3.6720000000         0.0260000000
   H        -4.1050000000        -2.1570000000         0.2900000000
   H        -3.8100000000        -2.8180000000        -1.3550000000
   H         0.0790000000        -1.9010000000         0.5190000000
   H        -1.2770000000        -1.6920000000         1.6480000000
   H        -0.8080000000        -3.2670000000         0.9880000000
   H        -1.3250000000        -4.1440000000        -0.9270000000
   H        -2.2980000000        -3.5040000000        -2.3030000000
   H        -0.5840000000        -3.1720000000        -2.1880000000
   C         1.8000000000        -0.0900000000         0.6660000000
   S         1.4820000000        -1.0380000000        -0.5250000000
   S         1.9010000000         1.1000000000         1.7160000000
