      36
final step 2000
   C        -1.7610000000         0.7420000000        -0.4080000000
   C        -1.8220000000         2.3890000000         1.3370000000
   H        -2.6290000000         2.7600000000         1.9880000000
   C        -1.7140000000         3.0700000000         0.0090000000
   H        -2.5260000000         3.8330000000        -0.0460000000
   B        -1.5610000000        -0.6160000000        -1.0770000000
   N        -2.0630000000         1.9600000000        -0.8660000000
   N        -1.9190000000         0.9370000000         0.9740000000
   C        -2.5910000000         2.3620000000        -2.1650000000
   H        -3.4570000000         1.7430000000        -2.4280000000
   H        -2.8900000000         3.4070000000        -2.2300000000
   H        -1.8010000000         2.1730000000        -2.9220000000
   C        -1.4810000000        -0.0650000000         1.9900000000
   H        -2.0860000000         0.0590000000         2.9040000000
   H        -1.4320000000        -1.1220000000         1.6370000000
   H        -0.4360000000         0.0840000000         2.2810000000
   N        -0.7410000000        -0.1490000000        -2.2620000000
   N         0.1440000000         0.0260000000        -3.0130000000
   H        -0.7460000000         3.5550000000        -0.2470000000
   H        -0.9020000000         2.5830000000         1.9150000000
   C        -2.5310000000        -1.9280000000        -0.9640000000
   C        -3.7470000000        -1.7130000000         0.0290000000
   C        -1.6770000000        -3.2030000000        -0.6680000000
   C        -3.3300000000        -2.0740000000        -2.3660000000
   H        -1.2210000000        -3.4710000000        -1.6340000000
   H        -0.7460000000        -2.9370000000        -0.1360000000
   H        -2.0770000000        -4.1370000000        -0.2410000000
   H        -3.9890000000        -1.2030000000        -2.4640000000
   H        -2.6930000000        -2.1780000000        -3.2490000000
   H        -3.9640000000        -2.9770000000        -2.3360000000
   H        -3.3980000000        -1.8370000000         1.0620000000
   H        -4.1650000000        -0.7100000000        -0.1040000000
   H        -4.4900000000        -2.4910000000        -0.0160000000
   C         1.3640000000         0.0840000000         1.2520000000
   S         1.2010000000        -1.3980000000         0.6720000000
   S         1.2800000000         1.6700000000         1.5010000000
