      36
Step =        0, E =      0.00000000
   C        -2.9032673426        -0.5648135009         0.6807906441
   C        -2.5341394297        -2.8528365268         1.0215987998
   H        -2.9499453267        -3.5360751140         0.2605373773
   C        -3.6059228864        -2.3666238404         2.0010866332
   H        -4.5093227814        -2.9938602727         1.9824140272
   B        -2.7922950448         0.8526626888         0.1582641058
   N        -3.8963229883        -1.0357900300         1.4961737737
   N        -2.0583133897        -1.6176762235         0.4128380584
   C        -5.1485036120        -0.3799489291         1.7666715427
   H        -5.1120761955         0.2833900310         2.6486991379
   H        -5.4280423176         0.2316062039         0.8955226424
   H        -5.9256378175        -1.1405896035         1.9355876670
   C        -0.6521065468        -1.4687282335         0.1293880484
   H        -0.4247699169        -0.4071389793        -0.0155795008
   H        -0.0414775301        -1.8389976378         0.9735055040
   H        -0.3576694364        -2.0216484138        -0.7774292167
   N        -3.3440306523         1.7823886905         1.0853700481
   N        -3.7227812520         2.5519830967         1.8333960551
   H        -3.2363897806        -2.3331567612         3.0427351352
   H        -1.7093809984        -3.3749944833         1.5291845690
   C        -2.2400455293         1.4646362902        -1.2412800492
   C        -3.2346297126         2.5373030009        -1.7302831530
   C        -2.1742631013         0.3790650417        -2.3287702497
   C        -0.8621125397         2.1385371814        -1.1041664212
   H        -1.8871379438         0.8219631221        -3.2991466654
   H        -1.4378967916        -0.4053622387        -2.1019510457
   H        -3.1516463241        -0.1127537343        -2.4592817875
   H        -0.8831207186         2.9333020775        -0.3411459480
   H        -0.0748690770         1.4253842349        -0.8110923085
   H        -0.5453024910         2.5987187196        -2.0581186007
   H        -3.3351234654         3.3651993369        -1.0097898383
   H        -2.8978199284         2.9749215100        -2.6870085469
   H        -4.2378765488         2.1099332967        -1.8887204380
   C         2.6458860429         0.0000000000         0.0000000000
   O         2.7606465840        -0.0083383068        -1.1568578976
   O         2.5311255019         0.0083383068         1.1568578976
