      24
final step 1000
   C        -2.2690000000        -0.3270000000         0.2930000000
   C        -3.8580000000        -0.3540000000         2.1000000000
   H        -3.9600000000        -0.8950000000         3.0440000000
   C        -4.3150000000        -1.1640000000         0.8280000000
   H        -3.6330000000        -2.0370000000         0.9620000000
   B        -0.9890000000        -0.8880000000        -0.5030000000
   N        -3.6880000000        -0.2920000000        -0.2450000000
   N        -2.4220000000        -0.2340000000         1.6760000000
   C        -3.8620000000        -0.8780000000        -1.6050000000
   H        -4.0640000000        -1.9580000000        -1.5720000000
   H        -4.7170000000        -0.3790000000        -2.0720000000
   H        -2.9520000000        -0.7740000000        -2.2140000000
   C        -1.5110000000         0.7040000000         2.4780000000
   H        -1.0920000000         0.0970000000         3.2800000000
   H        -0.7350000000         1.0640000000         1.7930000000
   H        -2.0600000000         1.5870000000         2.8430000000
   N         0.4320000000        -1.1160000000        -0.1470000000
   N         1.3310000000        -1.2480000000         0.5530000000
   H        -5.3560000000        -1.4950000000         0.6650000000
   H        -4.3530000000         0.6360000000         2.1910000000
   H        -1.2350000000        -0.6550000000        -1.6250000000
   C         1.6550000000         0.5010000000        -1.2000000000
   O         2.4320000000        -0.3430000000        -1.6870000000
   O         0.6740000000         1.1700000000        -0.7960000000
