      24
best product-like step 915
   C        -2.2250000000        -0.4870000000         0.1660000000
   C        -3.7570000000        -0.2860000000         1.9780000000
   H        -3.8920000000        -0.9920000000         2.7930000000
   C        -4.4600000000        -0.8570000000         0.7390000000
   H        -4.8280000000        -1.8820000000         0.9690000000
   B        -1.0220000000        -0.2640000000        -0.6550000000
   N        -3.4130000000        -0.8750000000        -0.3170000000
   N        -2.2560000000        -0.2300000000         1.5660000000
   C        -3.8570000000        -0.8600000000        -1.7110000000
   H        -3.5320000000        -1.7830000000        -2.2140000000
   H        -4.9500000000        -0.7290000000        -1.7070000000
   H        -3.3460000000        -0.0250000000        -2.2270000000
   C        -1.5850000000         0.9600000000         2.1260000000
   H        -1.8770000000         0.9670000000         3.1860000000
   H        -0.4840000000         0.9550000000         2.0840000000
   H        -1.9690000000         1.8710000000         1.6210000000
   N         0.0770000000        -1.3830000000         0.6190000000
   N         1.1670000000        -1.6320000000         0.3370000000
   H        -5.3250000000        -0.2590000000         0.3890000000
   H        -4.1310000000         0.7030000000         2.3130000000
   H        -0.7110000000        -0.3700000000        -1.8450000000
   C         1.6020000000         0.3470000000        -1.0060000000
   O         2.4770000000        -0.0780000000        -1.5120000000
   O         0.8640000000         1.1010000000        -0.6170000000
