      24
best bond-forming step 137
   C        -2.0440000000        -0.2170000000         0.4080000000
   C        -3.4120000000         1.4480000000        -0.4830000000
   H        -4.4770000000         1.1400000000        -0.5900000000
   C        -2.5180000000         0.8740000000        -1.5710000000
   H        -3.0040000000         0.6870000000        -2.5350000000
   B        -0.7130000000        -0.7390000000         1.2360000000
   N        -2.0650000000        -0.3820000000        -0.9600000000
   N        -2.8250000000         0.8110000000         0.6970000000
   C        -1.8400000000        -1.4070000000        -1.9710000000
   H        -1.3960000000        -2.3130000000        -1.5580000000
   H        -2.8320000000        -1.6980000000        -2.3620000000
   H        -1.2120000000        -0.9890000000        -2.7730000000
   C        -3.5600000000         1.0460000000         1.9090000000
   H        -3.0530000000         0.5990000000         2.7610000000
   H        -3.6700000000         2.1280000000         2.0670000000
   H        -4.5600000000         0.5900000000         1.7930000000
   N        -0.3930000000        -2.2460000000         1.0790000000
   N        -0.4090000000        -3.2150000000         0.4960000000
   H        -1.6400000000         1.5380000000        -1.7490000000
   H        -3.3770000000         2.5390000000        -0.3600000000
   H        -0.5310000000        -0.2940000000         2.3870000000
   C         1.1910000000        -0.1730000000         0.3310000000
   O         2.3240000000         0.0140000000         0.4030000000
   O         0.0110000000        -0.2830000000         0.2490000000
