      36
best TS-like step 963
   C        -2.5250000000         0.3200000000        -0.4070000000
   C        -4.7700000000        -0.3830000000         0.2690000000
   H        -5.1520000000        -1.3780000000         0.1050000000
   C        -4.7400000000         0.2060000000        -1.1340000000
   H        -4.8410000000        -0.4120000000        -2.0000000000
   B        -1.0060000000         0.3280000000         0.0460000000
   N        -3.4400000000         1.1480000000        -1.3250000000
   N        -3.2060000000        -0.6060000000         0.3390000000
   C        -3.0120000000         1.3700000000        -2.9610000000
   H        -3.2240000000         2.3990000000        -2.9380000000
   H        -1.9370000000         1.1340000000        -2.9810000000
   H        -3.4760000000         0.7190000000        -3.7490000000
   C        -2.8840000000        -0.5880000000         1.7840000000
   H        -1.8990000000        -0.6210000000         2.0720000000
   H        -3.4350000000         0.2860000000         2.3450000000
   H        -3.3710000000        -1.3430000000         2.2810000000
   N        -1.5250000000        -0.8100000000        -2.2150000000
   N        -1.1020000000        -1.8160000000        -2.1190000000
   H        -5.3600000000         1.0960000000        -1.1050000000
   H        -5.2460000000         0.3680000000         0.9830000000
   C        -1.6260000000         1.4580000000         0.6480000000
   C         1.4040000000         2.2090000000         0.1390000000
   C         0.2170000000         3.6720000000        -1.6660000000
   C        -1.6770000000         2.4010000000         1.9270000000
   H        -1.0380000000         3.0800000000        -1.1350000000
   H        -1.6460000000         2.4670000000        -0.3400000000
   H         0.3420000000         4.8460000000        -1.0410000000
   H        -2.6900000000         2.6360000000         2.2070000000
   H        -1.0330000000         2.0540000000         2.6760000000
   H        -1.1660000000         3.3670000000         1.6750000000
   H         1.6640000000         3.1910000000         0.4700000000
   H         1.2300000000         1.5650000000         1.0710000000
   H         1.7340000000         1.7540000000        -0.7860000000
   C         1.1280000000        -2.2530000000         1.1450000000
   O         0.1990000000        -1.5370000000         1.3060000000
   O         2.2780000000        -2.7650000000         0.7610000000
