      36
best product-like step 895
   C        -2.8490000000         0.0230000000        -0.2030000000
   C        -5.0920000000         0.5740000000         0.5000000000
   H        -5.4890000000        -0.5150000000         0.4930000000
   C        -4.8680000000         0.7500000000        -1.0210000000
   H        -5.5450000000         0.0410000000        -1.5040000000
   B        -1.2180000000         0.3850000000        -0.4760000000
   N        -3.6040000000         0.1380000000        -1.2680000000
   N        -3.6930000000         0.2920000000         1.3090000000
   C        -3.0470000000         0.7010000000        -2.6480000000
   H        -3.1980000000         1.8030000000        -2.6970000000
   H        -2.0080000000         0.4710000000        -2.7830000000
   H        -3.6620000000         0.2340000000        -3.3980000000
   C        -3.3990000000        -0.6410000000         2.2370000000
   H        -2.3870000000        -1.0480000000         2.0520000000
   H        -3.2620000000        -0.0870000000         3.1940000000
   H        -3.9580000000        -1.5410000000         2.5320000000
   N         0.3010000000        -0.6050000000        -2.0330000000
   N         1.1770000000        -1.2220000000        -1.7800000000
   H        -5.0800000000         1.7750000000        -1.2650000000
   H        -5.5550000000         1.0860000000         1.2840000000
   C        -0.0490000000         0.4990000000         0.2880000000
   C         1.4090000000         0.9400000000        -0.1890000000
   C        -1.4580000000         3.0120000000        -0.7390000000
   C        -0.5830000000         1.6450000000         1.4840000000
   H        -1.2460000000         2.5250000000        -1.8360000000
   H        -2.8820000000         2.9850000000        -0.7840000000
   H        -0.3530000000         3.0330000000        -0.3010000000
   H        -1.6550000000         1.9520000000         1.4660000000
   H        -0.6080000000         0.9590000000         2.3150000000
   H        -0.1430000000         2.6320000000         1.7420000000
   H         1.4190000000         2.0280000000         0.0690000000
   H         1.9040000000         0.4440000000         0.6340000000
   H         1.5780000000         0.7790000000        -1.1870000000
   C         0.3550000000        -1.2230000000         0.1370000000
   O        -0.6790000000        -0.8240000000         0.9310000000
   O         1.1960000000        -2.0360000000         0.0460000000
