      36
best bond-forming step 883
   C        -2.5220000000         0.0230000000        -0.2720000000
   C        -4.9650000000         0.3950000000         0.6200000000
   H        -5.4630000000        -0.6070000000         0.7760000000
   C        -4.6700000000         0.5230000000        -0.9190000000
   H        -5.4410000000         0.0500000000        -1.5590000000
   B        -1.1820000000         0.5260000000        -0.5340000000
   N        -3.3570000000        -0.0790000000        -1.2880000000
   N        -3.5900000000         0.4350000000         1.4020000000
   C        -3.0270000000         0.7320000000        -2.5600000000
   H        -3.2950000000         1.7840000000        -2.6190000000
   H        -1.9710000000         0.5770000000        -2.7070000000
   H        -3.5250000000         0.1610000000        -3.3540000000
   C        -3.1860000000        -0.6930000000         2.3560000000
   H        -2.1050000000        -0.9410000000         2.2650000000
   H        -3.2350000000         0.1500000000         3.0310000000
   H        -3.8690000000        -1.4880000000         2.4300000000
   N         0.5150000000        -0.3950000000        -1.7600000000
   N         1.3780000000        -1.0480000000        -1.6150000000
   H        -4.8600000000         1.6060000000        -1.0540000000
   H        -5.4890000000         1.1830000000         1.1150000000
   C         0.0890000000         0.5300000000         0.5230000000
   C         1.5910000000         0.8030000000        -0.2250000000
   C        -1.7790000000         3.3640000000        -1.0680000000
   C        -0.7120000000         1.7240000000         1.4640000000
   H        -0.7450000000         1.0410000000        -1.3620000000
   H        -2.5640000000         2.6680000000        -0.5050000000
   H        -1.0470000000         2.9430000000        -0.2790000000
   H        -1.7680000000         2.0820000000         1.3450000000
   H        -0.7380000000         1.2620000000         2.4600000000
   H        -0.1450000000         2.6300000000         1.7840000000
   H         1.8220000000         1.9760000000         0.1730000000
   H         2.3330000000         0.4880000000         0.4160000000
   H         1.3480000000         1.0730000000        -1.2610000000
   C        -0.1550000000        -1.3750000000         0.0080000000
   O        -1.0090000000        -0.7090000000         0.6030000000
   O         0.5630000000        -2.2690000000        -0.1610000000
