      36
final step 1000
   C        -2.0340000000         0.4460000000        -0.0590000000
   C        -4.3870000000        -0.4070000000         0.0170000000
   H        -4.8950000000        -1.4910000000        -0.1220000000
   C        -4.3300000000         0.1400000000        -1.3740000000
   H        -4.8000000000        -0.5160000000        -2.1300000000
   B        -0.6450000000         1.3760000000        -0.0110000000
   N        -2.8680000000         0.3480000000        -1.4160000000
   N        -2.9050000000        -0.7020000000         0.7070000000
   C        -2.6150000000         0.8650000000        -2.5810000000
   H        -3.2130000000         1.6890000000        -2.9170000000
   H        -1.6520000000         0.8790000000        -3.0200000000
   H        -3.1130000000         0.2100000000        -3.3630000000
   C        -2.9930000000        -1.0470000000         2.0690000000
   H        -1.9060000000        -1.1670000000         2.1580000000
   H        -3.3420000000        -0.3790000000         2.8250000000
   H        -3.2590000000        -2.0960000000         2.1560000000
   N        -1.1390000000        -0.4500000000        -1.6970000000
   N        -1.0930000000        -1.4930000000        -1.4090000000
   H        -4.9190000000         1.1090000000        -1.1960000000
   H        -5.0780000000         0.1200000000         0.6630000000
   C        -1.6240000000         2.5110000000         0.2500000000
   C         1.2090000000         1.9600000000        -0.0280000000
   C        -0.8000000000         3.9630000000        -1.5520000000
   C        -1.5410000000         2.3630000000         1.7310000000
   H        -0.0780000000         3.3940000000        -2.2280000000
   H        -2.5790000000         2.9280000000        -0.5580000000
   H        -1.3190000000         3.7980000000        -0.7220000000
   H        -2.5910000000         2.1150000000         1.9820000000
   H        -0.9980000000         1.3420000000         2.0980000000
   H        -1.0770000000         2.9790000000         2.4550000000
   H         1.1170000000         2.7300000000         0.6530000000
   H         1.6650000000         1.4680000000         0.7830000000
   H         1.5550000000         2.0470000000        -1.0560000000
   C         0.8240000000        -2.1040000000         0.5900000000
   O        -0.1820000000        -1.3750000000         0.7000000000
   O         1.1530000000        -3.2780000000         0.6860000000
