      36
best TS-like step 1602
   C        -2.3700000000        -0.0840000000        -0.5400000000
   C        -4.6750000000        -0.3240000000        -0.1490000000
   H        -5.0090000000        -1.3440000000        -0.2800000000
   C        -4.4120000000        -0.0230000000        -1.6430000000
   H        -4.9520000000        -0.4720000000        -2.1810000000
   B        -1.3530000000         0.5220000000         0.1190000000
   N        -2.9980000000         0.0300000000        -1.7290000000
   N        -3.3770000000        -0.6330000000         0.4200000000
   C        -2.4650000000         0.6610000000        -2.7510000000
   H        -2.7520000000         1.7790000000        -3.1060000000
   H        -1.2990000000         0.7480000000        -2.9310000000
   H        -2.9730000000         0.1860000000        -3.7170000000
   C        -3.5050000000        -0.5650000000         1.9850000000
   H        -2.1150000000        -0.8290000000         2.0850000000
   H        -4.1380000000         0.0380000000         2.6920000000
   H        -3.8700000000        -1.6830000000         1.9200000000
   N        -0.5940000000        -0.8000000000        -1.3250000000
   N         0.5480000000        -0.4710000000        -1.0560000000
   H        -4.8570000000         0.9430000000        -1.6770000000
   H        -5.3610000000         0.0210000000         0.5030000000
   C        -0.3600000000         1.6170000000        -0.0480000000
   C         0.8930000000         1.6260000000         0.6600000000
   C        -1.2270000000         2.6910000000        -0.8860000000
   C        -1.5400000000         2.1950000000         1.7330000000
   H        -0.4850000000         2.4660000000        -1.8900000000
   H        -2.3570000000         2.8360000000        -0.8100000000
   H        -0.5310000000         3.7360000000        -0.2710000000
   H        -2.3800000000         2.0060000000         1.4130000000
   H        -0.8920000000         1.3350000000         2.4350000000
   H        -0.9820000000         2.9470000000         1.8910000000
   H         1.2590000000         2.8630000000         1.1050000000
   H         1.3580000000         1.2910000000         1.4920000000
   H         1.8320000000         1.9490000000        -0.8290000000
   C         0.7620000000        -1.1890000000         0.2560000000
   O        -0.2770000000        -0.6430000000         0.7920000000
   O         0.7980000000        -2.2140000000         0.7690000000
