      36
final step 2000
   C        -2.4920000000        -0.0550000000        -0.4780000000
   C        -4.8550000000        -0.4160000000        -0.1030000000
   H        -5.2130000000        -1.5000000000        -0.1100000000
   C        -4.6780000000         0.0870000000        -1.6060000000
   H        -5.1050000000        -0.8040000000        -2.2870000000
   B        -0.8390000000         0.3530000000        -0.4120000000
   N        -2.9400000000        -0.0180000000        -1.7410000000
   N        -3.5520000000        -0.2090000000         0.4810000000
   C        -2.5710000000         0.7050000000        -2.9320000000
   H        -2.7030000000         1.5220000000        -3.0340000000
   H        -1.6230000000         0.6680000000        -2.7820000000
   H        -2.7450000000        -0.2440000000        -3.7760000000
   C        -3.2190000000        -0.6460000000         1.8770000000
   H        -2.0690000000        -0.7060000000         1.8170000000
   H        -3.9500000000         0.0300000000         2.5890000000
   H        -3.6820000000        -1.6470000000         1.7940000000
   N        -0.1750000000        -0.0970000000        -1.7470000000
   N         0.5490000000        -0.9310000000        -1.1490000000
   H        -5.0850000000         0.8840000000        -1.9580000000
   H        -5.5800000000         0.0400000000         0.2820000000
   C        -0.4430000000         1.8890000000         0.3040000000
   C         0.9150000000         1.8930000000         0.3630000000
   C        -1.0950000000         2.6200000000        -0.8220000000
   C        -1.5170000000         2.3610000000         1.7390000000
   H        -0.9060000000         2.6310000000        -1.9830000000
   H        -2.0700000000         2.4870000000        -0.9820000000
   H        -1.0700000000         3.9030000000        -0.6380000000
   H        -2.3970000000         2.1600000000         1.3210000000
   H        -1.2130000000         1.5860000000         2.3400000000
   H        -1.2870000000         3.2540000000         1.8880000000
   H         1.2000000000         3.1190000000         0.8920000000
   H         1.1860000000         1.5330000000         1.6200000000
   H         1.4470000000         1.7390000000        -0.5240000000
   C         0.4960000000        -1.3930000000         0.4760000000
   O        -0.6570000000        -1.1160000000         1.4350000000
   O         1.1330000000        -2.4910000000         0.8300000000
