      36
best product-like step 1724
   C        -2.4700000000        -0.3210000000        -0.4330000000
   C        -4.7510000000        -0.3850000000        -0.0690000000
   H        -5.0340000000        -1.5880000000         0.0170000000
   C        -4.5550000000         0.0640000000        -1.3910000000
   H        -5.1070000000        -0.8320000000        -2.4710000000
   B        -1.3070000000         0.1830000000        -0.0490000000
   N        -2.8790000000        -0.1650000000        -1.5890000000
   N        -3.4340000000        -0.1920000000         0.5810000000
   C        -2.5120000000         0.2620000000        -3.1640000000
   H        -2.9120000000         1.3590000000        -3.2980000000
   H        -1.4030000000         0.5640000000        -3.0630000000
   H        -3.0880000000        -0.3390000000        -3.6830000000
   C        -3.0020000000        -0.6720000000         1.7480000000
   H        -1.8280000000        -0.6360000000         2.0000000000
   H        -3.7350000000         0.0460000000         2.5100000000
   H        -3.7310000000        -1.4600000000         2.1130000000
   N        -0.2850000000         0.1450000000        -1.0900000000
   N         0.7960000000        -0.8970000000        -1.0370000000
   H        -5.1700000000         1.0630000000        -1.5780000000
   H        -5.3930000000        -0.0160000000         0.6450000000
   C        -0.6300000000         2.0580000000         0.0870000000
   C         0.6270000000         1.9960000000         0.3620000000
   C        -0.8800000000         2.7040000000        -0.8180000000
   C        -1.3120000000         2.2370000000         1.6200000000
   H        -0.6580000000         2.6740000000        -1.8240000000
   H        -2.1930000000         2.6740000000        -1.5330000000
   H        -0.8610000000         3.7880000000        -0.6410000000
   H        -2.4470000000         2.1150000000         1.3770000000
   H        -0.8540000000         1.7500000000         2.3360000000
   H        -1.1150000000         3.2670000000         1.8500000000
   H         1.4500000000         2.9030000000         0.6110000000
   H         1.0560000000         1.5640000000         1.2680000000
   H         1.3520000000         1.5570000000        -0.7140000000
   C         0.3740000000        -1.3670000000         0.4050000000
   O        -0.6910000000        -0.7760000000         0.8350000000
   O         0.8720000000        -2.4780000000         0.6790000000
