      36
best bond-forming step 1882
   C        -2.5510000000        -0.2280000000        -0.5410000000
   C        -4.7030000000        -0.4420000000        -0.2460000000
   H        -5.0450000000        -1.5770000000        -0.1710000000
   C        -4.6020000000         0.0910000000        -1.6130000000
   H        -4.7630000000        -0.7330000000        -2.5920000000
   B        -1.1290000000         0.1310000000        -0.0570000000
   N        -3.0370000000         0.0870000000        -1.7160000000
   N        -3.4220000000        -0.1890000000         0.5010000000
   C        -2.5090000000         0.7310000000        -2.8740000000
   H        -3.0300000000         1.6320000000        -3.2670000000
   H        -1.6880000000         0.4610000000        -2.9250000000
   H        -2.7790000000        -0.2810000000        -3.5890000000
   C        -3.4190000000        -0.7130000000         2.0100000000
   H        -2.3540000000        -0.7160000000         2.2810000000
   H        -3.7850000000         0.3100000000         2.5460000000
   H        -3.6480000000        -1.6660000000         1.9240000000
   N         0.2050000000        -0.0410000000        -0.8320000000
   N         0.3350000000        -1.4820000000        -1.0240000000
   H        -5.1860000000         1.1420000000        -1.7450000000
   H        -5.5090000000        -0.0820000000         0.4070000000
   C        -0.5190000000         2.0070000000         0.2350000000
   C         0.8840000000         1.8210000000         0.4090000000
   C        -1.1570000000         2.6820000000        -0.6610000000
   C        -1.5390000000         2.1340000000         1.6660000000
   H        -0.3790000000         2.6940000000        -1.3940000000
   H        -2.1270000000         2.7810000000        -1.1760000000
   H        -0.9760000000         3.8310000000        -0.5480000000
   H        -2.5820000000         2.0950000000         1.4840000000
   H        -1.1470000000         1.4600000000         2.4300000000
   H        -1.5440000000         3.2140000000         1.7340000000
   H         0.9310000000         3.1130000000         0.8820000000
   H         0.8970000000         1.3440000000         1.2450000000
   H         1.4290000000         1.9070000000        -0.6050000000
   C         0.2680000000        -1.5920000000         0.0200000000
   O        -0.3750000000        -0.5890000000         0.6430000000
   O         1.1940000000        -2.1440000000         0.7130000000
