      25
best product-like step 64
   C        -2.0300000000        -0.0900000000         0.2150000000
   C        -3.9770000000         1.2180000000         0.4560000000
   H        -4.9460000000         0.7660000000         0.1650000000
   C        -3.1710000000         1.6610000000        -0.7430000000
   H        -3.7310000000         1.9970000000        -1.6260000000
   B        -0.6370000000        -0.3200000000         0.4930000000
   N        -2.3850000000         0.3730000000        -1.0310000000
   N        -3.0870000000         0.1160000000         1.0420000000
   C        -1.4220000000         0.4370000000        -2.1370000000
   H        -0.3810000000         0.4990000000        -1.8060000000
   H        -1.5500000000        -0.3980000000        -2.8400000000
   H        -1.5300000000         1.3910000000        -2.6790000000
   C        -3.6610000000        -0.5640000000         2.2360000000
   H        -2.9300000000        -1.1970000000         2.7520000000
   H        -4.0530000000         0.2090000000         2.9140000000
   H        -4.4920000000        -1.2070000000         1.8930000000
   N        -0.6120000000        -2.1970000000        -1.3210000000
   N         0.3410000000        -1.7580000000        -1.1210000000
   H        -2.4490000000         2.4510000000        -0.4440000000
   H        -4.1540000000         1.9870000000         1.2260000000
   C        -0.7820000000        -1.9940000000         1.5370000000
   N        -1.3490000000        -2.7370000000         2.2820000000
   C         0.7410000000        -0.5980000000        -0.8670000000
   O         1.5880000000        -0.8650000000         1.4590000000
   O         1.4830000000        -0.1270000000        -1.5920000000
