      25
final step 1000
   C        -4.6910000000         0.9920000000        -1.9360000000
   C       -17.6170000000         7.4470000000         0.7130000000
   H       -18.1570000000         6.4970000000         0.6080000000
   C       -17.2050000000         7.8590000000         1.9430000000
   H       -17.5460000000         7.4210000000         2.8830000000
   B        19.8950000000         0.6470000000         6.7800000000
   N        -5.8770000000         0.8490000000        -1.9180000000
   N        -3.5580000000         1.1890000000        -1.4400000000
   C        -6.9050000000        -0.1660000000        -1.9610000000
   H        -6.5880000000        -1.1810000000        -1.7410000000
   H        -7.8250000000         0.1040000000        -1.5030000000
   H        -7.2960000000        -0.3770000000        -2.9710000000
   C        -2.3120000000         1.7190000000        -1.7190000000
   H        -1.4920000000         1.6330000000        -0.9960000000
   H        -1.5870000000         1.4970000000        -2.5330000000
   H        -2.3990000000         2.7960000000        -1.7950000000
   N         2.3180000000        -1.3900000000        -6.1270000000
   N         1.7580000000        -2.0330000000        -5.5050000000
   H       -16.6400000000         8.7820000000         2.0620000000
   H       -17.3940000000         7.9540000000        -0.2340000000
   C        -2.1230000000        -7.4380000000         8.0090000000
   N        -2.8700000000        -8.4420000000         8.2510000000
   C         1.2710000000        -4.8950000000        -4.0960000000
   O        18.8190000000         1.1150000000         5.9880000000
   O         2.0610000000        -5.4800000000        -4.4290000000
