      25
best bond-forming step 624
   C        -3.5190000000         0.5240000000        -1.3120000000
   C       -11.6760000000         4.9410000000         0.6840000000
   H       -10.7050000000         5.4040000000         0.8670000000
   C       -12.7940000000         5.6110000000         0.9130000000
   H       -12.8990000000         6.6850000000         1.0750000000
   B        13.0310000000         0.2920000000         4.2090000000
   N        -4.4840000000         0.9030000000        -2.0280000000
   N        -3.0610000000         0.0780000000        -0.3210000000
   C        -5.5240000000         0.2080000000        -2.9480000000
   H        -5.2490000000        -0.7950000000        -3.3450000000
   H        -6.4430000000         0.2180000000        -2.3530000000
   H        -5.5180000000         0.7710000000        -3.8920000000
   C        -1.2670000000         0.0310000000        -0.2230000000
   H        -1.1400000000        -0.7750000000         0.4880000000
   H        -0.8730000000        -0.4120000000        -1.1280000000
   H        -1.1180000000         1.0470000000         0.1040000000
   N         1.4780000000        -2.1190000000        -3.7130000000
   N         0.7970000000        -1.8760000000        -5.0320000000
   H       -13.7660000000         5.1030000000         0.8160000000
   H       -11.5840000000         3.8920000000         0.4040000000
   C        -1.5210000000        -5.3600000000         5.4040000000
   N        -1.8140000000        -6.1080000000         6.1320000000
   C         0.8850000000        -1.7920000000        -2.6970000000
   O        11.9840000000         0.0170000000         4.7840000000
   O         0.1580000000        -2.8620000000        -2.1460000000
