      32
Step =        0, E =      0.00000000
   C        -2.6360884534         0.6287852571        -0.3520711844
   C        -4.1919217130         1.7483347871         0.9865714824
   H        -5.1764164006         1.2539815618         1.0726743852
   C        -4.0401199803         2.4974082296        -0.3399444926
   H        -5.0067899412         2.7062967561        -0.8206857493
   B        -1.6216145829        -0.4059830606        -0.8173198740
   N        -3.2642522562         1.5565412611        -1.1318266345
   N        -3.1167942942         0.7725059023         0.9163089528
   C        -3.2201648723         1.6252386650        -2.5694809672
   H        -2.3712036063         2.2191876146        -2.9501918406
   H        -3.1383228866         0.6076170422        -2.9781270044
   H        -4.1534404625         2.0789151158        -2.9341369785
   C        -2.5128935708         0.2229729582         2.1011985970
   H        -1.4804148537        -0.0687127294         1.8692100179
   H        -2.4937371378         0.9876299348         2.8944851908
   H        -3.0522095927        -0.6593645529         2.4850971881
   N        -0.8481946536         0.0430886496        -1.9309409653
   N        -0.1784792547         0.4071358286        -2.7702608260
   H        -3.5040770856         3.4564397637        -0.2159303864
   H        -4.0636922940         2.4056021946         1.8590694825
   P        -1.4239952837        -2.2966581595        -0.4667923129
   C        -0.5393854401        -2.5347030258         1.1634220032
   C        -3.1518190720        -2.7768915160         0.0477841775
   H        -3.5668637008        -2.1414910026         0.8468646382
   H        -3.8155046298        -2.7080827947        -0.8274615372
   H        -3.1538886587        -3.8220494075         0.3954748756
   H        -0.3545879452        -3.6110870942         1.3087423895
   H         0.4373112232        -2.0293896214         1.1175238164
   H        -1.0911338461        -2.1632685577         2.0407435562
   C         2.6458860429         0.0000000000         0.0000000000
   O         3.1777944684         0.0538150323         1.0323454236
   O         2.1139776175        -0.0538150323        -1.0323454236
