13
species 5; E = -1058.5858480128 Ha; i = 468 cm-1
O       1.83720879    -0.11888833    -0.19519040
O      -1.76575997    -0.16864359     0.25038268
C       0.56768094    -0.60350593     0.17187572
C      -0.53428898     0.16733917     0.01892637
H      -0.14183927    -0.38955987     2.16876268
H       0.51653124    -1.66103802     0.42118063
H      -0.33522734     1.19793130    -0.32298875
H       2.34455479     0.03801602     0.60728462
Ca     -3.07909134    -0.62797106     2.11663511
O      -5.11902960    -0.76190794     2.79981877
H      -6.05149920    -0.96206161     2.84295088
O      -0.71906329    -0.43147413     2.95754020
H      -0.23545083    -0.92798651     3.62612857
