21
species 19; E = -1287.7364195301 Ha; i = 341 cm-1
O      -0.86699390     1.64669476    -1.97621772
O       1.06481439    -0.40061546    -2.49676524
O      -1.34860775    -1.31715019    -0.14209212
O      -2.86921488    -1.93521376    -2.31232374
C      -0.47081206     0.71053233    -0.98227360
C       0.95895422     0.23053683    -1.23020688
C      -1.38668880    -0.50252089    -1.04390630
C      -2.27040170    -0.68358240    -2.25049361
H      -0.54196625     1.13668632     0.02279688
H       1.64096455     1.08248951    -1.15408030
H       1.22986925    -0.50829126    -0.47672570
H      -1.64509711    -0.50536617    -3.13055788
H      -2.99481570     0.14421062    -2.23506755
H      -0.45304727     2.49507031    -1.77841892
H      -3.60036154    -2.00480239    -1.55248974
Ca     -2.47065778    -3.61789483     0.08820039
O      -4.34633401    -2.30361693    -0.37373790
H      -5.24584175    -2.53260681    -0.61572423
O      -0.63424849    -4.48527665    -0.72692166
H       0.13861331    -4.18141990    -1.20275430
H       0.80865750     0.24832827    -3.16440432
