21
species 23; E = -1287.7390841050 Ha; i = 267 cm-1
O       0.80028360     1.59002772    -2.23197126
O       2.10837865    -1.70111280    -1.73883583
O      -0.74433069    -1.66958151    -2.90814849
O      -1.93389022     1.38038349    -1.63986311
C       0.62877831     0.18896384    -2.01760738
C       1.90414668    -0.51371854    -2.46578853
C      -0.60895237    -0.28757959    -2.79418251
C      -1.87167121     0.31136008    -2.20648324
H       0.48793093    -0.02255959    -0.95101475
H       1.85265048    -0.70998024    -3.54326566
H       2.72545276     0.19541457    -2.29668655
H      -0.51229184     0.14655001    -3.80192209
H      -2.77070500    -0.32240789    -2.32038295
H      -0.02177651     2.00925344    -1.93827198
Ca      0.71184532    -4.21516661    -2.15774931
O       2.73890944    -3.68499292    -3.11555775
H       3.60451444    -4.08163099    -2.99741881
H       2.54906768    -2.40723547    -2.33953300
O      -0.74436097    -2.98599911    -0.81751849
H      -0.82615177    -2.12217498    -1.95368552
H      -1.61371119    -3.29735174    -0.55086416
