17
species 13; E = -1173.1528285086 Ha; i = 263 cm-1
O       1.57652420     0.16688402    -0.44390201
O      -1.63830071     0.07544303     1.06286815
O      -1.68636374     1.43091457    -1.35301480
C       0.24277967     0.34504733    -0.50108091
C      -0.63685828    -0.59664637     0.30135151
C      -0.29380449     1.31573734    -1.24540391
H      -1.91152767     2.36037140    -1.46644298
H      -0.00712939    -1.15259891     0.99339430
H      -1.10569445    -1.32380676    -0.37350426
H       0.30072008     2.00676322    -1.82841236
H       1.85249972    -0.80482432    -0.06004370
Ca      2.39421506    -3.91842434    -1.06346433
O       3.84468610    -3.36448061    -2.58436835
H       4.50694222    -3.45559930    -3.26747261
H      -2.08567327     0.66366356     0.43647666
O       2.25495440    -2.07090331     0.33912840
H       2.63086983    -2.01515705     1.22155338
