25
species 11; E = -1402.3303989343 Ha; i = 171 cm-1
O       0.01195072     0.55971466     0.53382907
O      -0.12980452    -2.57306606     1.31373402
O      -2.41998689    -1.66471768     0.05155997
O      -1.84683201     0.93177142    -0.78498757
O       1.04867288     1.88762339     2.74903438
C      -0.64058817    -1.35371956     1.78691058
C       0.35846456    -0.19340430     1.69429591
C      -1.89068431    -0.80122907     1.01545836
C      -1.43126525     0.58452157     0.46405618
C       0.30409925     0.69283299     2.93256703
H      -0.89843008    -1.51688920     2.83794202
H       1.37182042    -0.56792546     1.54998869
H      -2.69145308    -0.61805521     1.73504628
H      -1.78676400     1.36492958     1.15468573
H       0.73614345     0.15463114     3.77755976
H      -0.73869257     0.92322889     3.18699266
H      -1.70026863    -2.00624199    -0.54854670
H       0.81503710     2.21463369     1.86939291
Ca      0.51325794    -1.95257623    -3.17964603
O      -0.44260689    -2.85493589    -1.27793611
H      -0.82325364    -3.73796253    -1.29702972
H      -0.18028516    -2.63348306     0.31251465
O      -0.91955316    -0.20445157    -2.87220124
H      -0.93349981     0.56946369    -3.44126419
H      -1.44735534     0.35047568    -1.54540721
