17
species 6; E = -1173.1671941950 Ha; i = 378 cm-1
O      -0.10671626     1.56852002     0.16920755
O       1.96594414    -1.07449266    -1.25483310
O      -1.62645627    -0.50375050     0.79530911
C       0.15238404     0.36190631    -0.51426916
C       1.62442502    -0.09098194    -0.35642361
C      -0.75929283    -0.71959025    -0.02479728
H      -0.03017277     0.47903290    -1.59065685
H       1.75568507    -0.40785868     0.69713883
H       2.22160390     0.83275063    -0.45909113
H      -0.58171449    -1.72611110    -0.42812738
H      -0.86932168     1.40068608     0.74452081
Ca      1.94227847    -1.54987902    -3.50633796
O       4.53682743    -1.59526396    -0.75436653
H       4.60563084    -2.48048022    -0.38508681
H       3.55990378    -1.44534245    -0.90615583
O       1.65670014    -3.70362191    -3.46488395
H       1.19186195    -4.51214253    -3.25647553
