21
species 22; E = -1287.7368257902 Ha; i = 236 cm-1
O      -1.14640440    -0.16037292     1.38983009
O       1.39853290    -0.74982237    -1.20811043
O      -2.09639114    -0.21310089    -1.31728531
O      -1.44012283    -3.70362309    -0.41500523
C      -0.52458780    -0.94163736     0.34117815
C       0.65134381    -0.12022173    -0.19882346
C      -1.51911443    -1.33748772    -0.68847112
C      -1.88237708    -2.59979524    -0.97225187
H      -0.15060385    -1.85571871     0.80169219
H       0.24655480     0.80826243    -0.61576509
H       1.27327968     0.15761584     0.66505127
H      -2.64853969    -2.70006873    -1.76507960
H      -2.95779236    -0.46790678    -1.66615942
H      -1.74987592     0.44281705     0.93678442
H      -0.43544685    -4.40021206    -1.25039715
Ca      2.56091930    -4.55941272    -2.39778348
O       0.20925385    -4.95184785    -1.84999495
H      -0.36346707    -5.48497940    -2.40948263
O       2.57649413    -3.03745120    -0.70508789
H       3.12739323    -2.98362734     0.07893722
H       1.79863964    -1.62652912    -0.89686116
