17
species 7; E = -1173.1652814506 Ha; i = 588 cm-1
O      -0.02673322     1.66341017    -0.01748767
O       1.91068118    -1.43257039    -0.07346776
O      -1.72885876    -0.19000663     0.80172157
C       0.27106217     0.33012434    -0.36157701
C       1.64592726    -0.08747235     0.19182311
C      -0.78855369    -0.60011078     0.15665717
H       0.29069596     0.21137575    -1.45325202
H       1.63385795     0.11000852     1.27222383
H       2.39550809     0.57871962    -0.25037360
H      -0.66094363    -1.66586386    -0.06957382
H      -0.83037470     1.63315845     0.52594647
Ca      3.53033706    -2.45295035    -3.87665740
O       3.79687359    -1.68418647    -1.72236429
H       4.55632336    -1.92509290    -1.18523414
H       2.68789293    -1.51655313    -0.75842779
O       2.02382115    -4.01841815    -3.77682302
H       1.36299105    -4.61288946    -3.42575584
