22
species 9; E = -1325.8610189570 Ha; i = 621 cm-1
O       0.49734441     0.59563314    -0.10037358
O       0.12649650    -1.95497918    -0.12283298
O      -2.19043371    -2.45018291     1.29062218
O      -2.83839428    -0.52684322    -0.53059557
O      -0.60734278     1.58925708     2.41692945
C      -0.05355313    -1.33507819     1.14737818
C       0.75723191    -0.02556151     1.10231359
C      -1.56493526    -1.18373037     1.39075503
C      -2.16938998    -0.19031115     0.42315859
C       0.58626065     0.84463234     2.35706485
H       0.32676283    -2.01253846     1.91780348
H       1.81090822    -0.37557016     1.15325568
H      -1.73222047    -0.80519680     2.40177587
H      -1.97141831     0.86009462     0.66063033
H       1.45372611     1.51635425     2.41785513
H       0.63274705     0.18599071     3.23547588
H      -1.96148240    -2.78361395     0.41152295
H      -0.48092662     2.37475115     1.78231062
Ca      0.15668285     2.55253888    -1.20429630
O      -0.22431167     3.57341918     0.79535756
H       0.34747064     4.18182887     1.26977254
H       0.25573100    -1.15151885    -0.67893005
