18
species 25; E = -1211.2772779007 Ha; i = 82 cm-1
O      -1.01249962     1.78569630    -2.20559942
O       1.45410185    -0.90308716    -1.78855531
O      -1.00415631    -1.83179013    -1.92069706
O      -3.52612128    -1.23011878    -1.16397909
C      -0.49445631     0.54633879    -1.72805824
C       0.88589378     0.27935515    -2.31980026
C      -1.46559454    -0.56876192    -2.16904021
C      -2.83904888    -0.32488761    -1.59920923
H      -0.41463712     0.55410050    -0.63397156
H       0.77901470     0.22079823    -3.41265651
H       1.54993197     1.11867542    -2.09907813
H      -1.62517390    -0.36169949    -3.25470044
H      -3.22597402     0.70633841    -1.62579487
H      -0.57287932     2.50159866    -1.73274755
Ca     -2.50907355    -3.61090116    -1.62156736
O      -2.87000294    -5.56909572    -0.78628438
H      -2.80979329    -6.46584996    -0.46147902
H       0.67872949    -1.52096169    -1.77870636
