18
species 27; E = -1211.2458566809 Ha; i = 141 cm-1
O       2.87946573     1.05400146     0.42313240
O       1.66319910    -1.37865275    -2.85200947
O       2.80418538    -2.38168082    -0.52205432
O       0.91068890     1.95100166    -1.62472411
C       2.51373745    -0.08802877     0.23399337
C       1.87816092    -0.02229485    -2.51456625
C       3.46730437    -1.21294511    -0.09878986
C       0.85620717     0.72897533    -2.04629767
H       1.46494723    -0.39161502     0.38716695
H       2.89488144     0.33740681    -2.62681195
H       4.00655835    -1.44589100     0.82511876
H       4.20156611    -0.85277043    -0.82517631
H      -0.11808429     0.21052448    -2.00781636
H       1.93409749    -1.52116544    -3.76532791
H       2.42625866    -2.19996636    -1.40435164
Ca      1.94134322     3.42271034    -0.14633781
O       2.35101064     5.38562370     0.62599024
H       2.36444433     6.30604768     0.87742771
