22
species 10; E = -1325.8763752679 Ha; i = 568 cm-1
O       0.40504147     0.16636438     0.93114099
O      -0.15089187    -2.68563499     1.85177299
O      -2.27705428    -1.93243523     0.26443703
O      -0.83566770     0.04656218    -1.00820873
O       0.72931855     1.91045299     3.06581899
C      -0.75694096    -1.45417520     2.17397851
C       0.27002502    -0.32786783     2.25597994
C      -1.74357512    -0.92725335     1.08452417
C      -0.95656710     0.19155402     0.29619494
C      -0.14058649     0.79474046     3.20077070
H      -1.26577980    -1.58882454     3.13438038
H       1.23971093    -0.72192978     2.56416123
H      -2.58708458    -0.45098361     1.59523891
H      -1.37868560     1.17322261     0.59597179
H      -0.08094392     0.44632698     4.23246637
H      -1.17699738     1.09698649     3.00992411
H      -1.52263375    -2.28011681    -0.27949345
H       0.86415974     2.01670120     2.11376322
Ca      1.07152092    -1.04482401    -1.70636378
O       0.02323351    -2.86662560    -0.78880299
H       0.01169132    -3.80499886    -0.99113281
H      -0.03277006    -2.75515706     0.85912635
