18
species 24; E = -1211.2722973269 Ha; i = 80 cm-1
O      -1.00198504     1.74621415    -2.07469368
O       1.70871695    -0.73729159    -1.85187697
O      -0.85545623    -1.70721860    -1.35819561
O      -3.46207664    -1.56231554    -1.98228711
C      -0.34726786     0.58868838    -1.58845435
C       0.91314350     0.29085385    -2.41598419
C      -1.29476144    -0.59596585    -1.63654552
C      -2.73227808    -0.42365596    -2.04967580
H      -0.05130375     0.71041462    -0.53881614
H       0.60933012     0.04746421    -3.44123361
H       1.52151508     1.19463581    -2.44789310
H      -2.65162339     0.02651280    -3.06511720
H      -3.10745991     0.42332126    -1.43848632
H      -0.53437855     2.52104370    -1.74426634
Ca     -2.60985239    -3.66091329    -1.68054372
O      -2.83845625    -5.61697909    -0.78845879
H      -2.97339636    -6.49327425    -0.43437230
H       1.10402832    -1.46485655    -1.63903208
