17
species 17; E = -1173.1657779025 Ha; i = 305 cm-1
O       0.18692689    -1.98138706    -0.24199608
O      -1.66369640    -0.62745287     1.08315016
O       2.20841625    -1.00553971    -1.80833825
C       0.30881250    -0.77245121    -0.31295223
C      -0.67585177     0.11660977     0.41037520
C       1.40986998    -0.11206775    -1.10844947
H       0.92361805     0.58795810    -1.79758515
H      -1.13134343     0.78407010    -0.32761990
H      -0.11412815     0.74205498     1.11132347
H       1.97705266     0.50799870    -0.39812389
Ca      1.64337560    -3.79371687    -1.34895938
H      -1.45216835    -1.56127583     0.93094409
O       1.06235050    -5.59105943    -2.37771854
H       0.99566810    -6.28684802    -3.02781947
O       3.30230321    -2.55910441    -0.28158299
H       4.25497469    -2.66188138    -0.33555121
H       2.80661331    -1.56356692    -1.11570793
