14
species 15; E = -1096.7046356854 Ha; i = 143 cm-1
O       0.54659683    -1.21851608    -1.89586558
O      -0.59681858     1.32559403     0.43496536
O       2.64572845    -1.13717074    -0.17232313
C       0.60628862    -0.19823347    -1.00362079
C      -0.70636932     0.06935200    -0.23627199
C       1.74202193    -0.33655043    -0.01829451
H       0.83903110     0.79660562    -1.46326647
H      -0.90915845    -0.73694846     0.47909711
H      -1.51442901     0.08673306    -0.97257867
H       1.74640981     0.34383749     0.85022683
Ca      2.45535358    -2.35299819    -2.51482436
H      -1.42249749     1.49519665     0.89968637
O       2.53380435    -4.34672523    -1.64376375
H       2.26995193    -4.94475510    -0.94579780
