21
species 20; E = -1287.7409434524 Ha; i = 112 cm-1
O       0.61105846     1.73479229    -1.12676303
O       1.32106019    -1.70535715    -2.04012050
O      -0.77547264    -1.07147031     0.51600643
O      -1.63664753     0.83902249    -2.48077192
C       0.67737362     0.32700885    -0.81089970
C       1.40152769    -0.30620960    -2.00220507
C      -0.69227692    -0.29303132    -0.53877870
C      -1.72158846    -0.01608616    -1.37108069
H       1.26700321     0.18237179     0.09818402
H       0.93653377     0.08265447    -2.91400017
H       2.44200347     0.05244303    -1.99397990
H      -2.71750143    -0.40779126    -1.20646665
H      -1.07272168    -2.33652578    -1.63517307
H       0.29329201     2.19986542    -0.34382476
H      -0.89648050     1.43938397    -2.29741634
Ca     -0.44568518    -3.28852940     1.00991839
O      -1.33474680    -3.25295836    -1.42360123
H      -2.28142274    -3.28882466    -1.60110377
O       1.64303890    -3.00246697     0.16768132
H       2.35123249    -3.63574139     0.02700273
H       1.50350762    -2.13574661    -1.13305190
