13
species 4; E = -1058.5949228061 Ha; i = 945 cm-1
O       0.12943752     0.70720405    -0.40239355
O       0.31646055     0.20304849     2.37071728
C      -0.28483955    -0.49698158     0.13910525
C      -0.13403557    -0.63816415     1.62419726
H       0.22343450    -1.37772301    -0.29202905
H      -1.35296574    -0.65956668    -0.05865316
H      -0.47742061    -1.60753485     2.02931321
H       1.11603801     0.87831061    -0.09649981
O       2.40906271     1.18456432     0.50953843
H       3.09323208     1.32400594    -0.14858642
Ca      1.65680318     2.46662275     2.26637758
O       0.77899693     4.42172756     2.58279468
H       0.73198176     5.32878994     2.87787765
