13
species 3; E = -1058.5984460376 Ha; i = 526 cm-1
O       0.22066863     1.00782360     0.13837916
O       0.43380428    -0.14630128     2.59575828
C      -0.31804415    -0.23186575     0.33176805
C      -0.14019127    -0.76609080     1.72006411
H       0.10375833    -1.02598592    -0.32165368
H      -1.40865298    -0.29140268     0.14483362
H      -0.55556084    -1.76539816     1.93356093
H       1.80585697     0.80863224     0.04279720
O       2.76019494     0.83644229     0.36449399
H       3.27116085     1.27855781    -0.32137417
Ca      1.08509353     2.25689610     1.97417978
O       0.75532024     4.29096182     2.53235946
H       0.58761067     5.19211660     2.79755594
