14
species 16; E = -1096.7103825028 Ha; i = 87 cm-1
O       0.28247648    -1.53196175    -1.57804614
O      -0.59286962     1.28029670     0.37435990
O       2.78514870    -0.73527048    -0.94751918
C       0.38879392    -0.58678147    -0.80957976
C      -0.86936688     0.03679545    -0.24525461
C       1.74219841    -0.05199120    -0.41416460
H       1.69605415     1.02156571    -0.69586962
H      -1.28598577    -0.68434781     0.46814272
H      -1.58375394     0.13837483    -1.06785462
H       1.71320031    -0.01786564     0.69604927
Ca      2.55807433    -2.28176068    -2.58157123
H      -1.38613002     1.56825951     0.83575047
O       2.48176582    -4.29788661    -1.74622235
H       2.26476057    -4.84767987    -0.99424335
