17
species 12; E = -1173.1700837698 Ha; i = 230 cm-1
O       1.58193224    -2.33126575    -0.60716705
O      -1.31031292    -1.87232751    -2.85234340
O       2.76181481    -0.79885941    -2.70520555
C       0.85004876    -1.78022183    -1.66920901
C      -0.60840071    -2.14921809    -1.64793040
C       1.47973848    -1.08301507    -2.62877314
H       2.91030387     0.90580758    -3.41661289
H      -1.14422148    -1.59929049    -0.86686133
H      -0.68639446    -3.21491693    -1.39028698
H       0.83083293    -0.72861443    -3.43906487
H       1.07148398    -2.23190420     0.20537847
Ca      4.65137610    -0.64929980    -1.33611944
O       3.16332694     1.84997501    -3.46554106
H       3.58339957     1.94077544    -2.56838706
H      -0.84835967    -2.33043937    -3.56387301
O       4.36113361     1.58699344    -1.05728114
H       4.02441103     2.09327101    -0.31580986
