18
species 14; E = -1211.2428095361 Ha; i = 105 cm-1
O      -0.15465198     0.05079606     1.24746564
O       3.75756430    -2.94829578    -0.11698778
O      -1.17056019    -1.89742076    -0.49408648
O      -3.73738484    -2.45109076    -0.63454347
C      -1.51141087    -0.06849096     0.93433592
C       4.68324899    -2.19399334    -0.27617188
C      -1.95753293    -1.00838160     0.08776407
C      -3.43119746    -1.10780669    -0.28208999
H      -2.14251708     0.65815275     1.42395958
H       4.91077453    -1.76029906    -1.26148131
H       5.35074323    -1.91891329     0.55321074
H      -3.66309934    -0.44133432    -1.12378147
H      -4.05637380    -0.80426423     0.56035894
H       0.25501804    -0.73007552     0.84783090
H      -2.85703228    -2.81594582    -0.85677834
Ca      0.31603119    -3.23770446    -1.60575831
O      -0.93331290    -4.96621171    -1.92452353
H      -1.51016833    -5.64535681    -2.26637411
