22
species 8; E = -1325.8575717810 Ha; i = 490 cm-1
O       0.82583680     0.90806334     0.68499352
O       0.59129336    -1.63613827     0.17519874
O      -2.04035133    -2.39553532     1.37292993
O      -1.97338968    -0.56221594    -0.79422047
O       1.20752301     1.85998333     3.39412240
C       0.14876838    -1.26825116     1.41975830
C       0.87078008     0.04044794     1.81581736
C      -1.41272341    -1.14711211     1.45880133
C      -1.79479931    -0.20662823     0.35379295
C       0.35080396     0.78127112     3.02645166
H       0.36821362    -2.01762005     2.20379304
H       1.91843816    -0.22387516     2.01689940
H      -1.71651467    -0.70028691     2.41171397
H      -1.86486911     0.86270064     0.61231680
H       0.31838132     0.10467532     3.88180318
H      -0.66250277     1.15442000     2.84474973
H      -1.86421514    -2.86878496     0.48378787
H       1.27935490     2.43897039     2.62593165
Ca     -0.24017713    -2.37042495    -1.83583227
O      -1.72982129    -3.72783808    -0.81547271
H      -1.60679263    -4.63317827    -0.52132697
H       0.88107062     0.25252151    -0.04311149
