18
species 26; E = -1211.2647408778 Ha; i = 269 cm-1
O       2.55429531     1.01920220     0.15324390
O       1.79163454    -1.32874893    -2.52013529
O       3.11182170    -2.54761230    -0.43385721
O       0.59859511     1.92957359    -1.79723022
C       2.28471742    -0.19444916    -0.39210938
C       1.95998425    -0.04700936    -1.91567712
C       3.45799692    -1.17966563    -0.23075497
C       0.69396823     0.74579766    -2.03880696
H       1.40586801    -0.70346351     0.06391444
H       2.79450617     0.49830103    -2.36558514
H       3.81126434    -1.08481309     0.79654448
H       4.27559080    -0.88059971    -0.90108116
H      -0.19659760     0.15744131    -2.32947971
H       1.99312067    -1.26437290    -3.46002818
H       2.67314222    -2.56997047    -1.29697714
Ca      2.10488823     3.23640255     0.00262873
O       2.26604557     5.31893959     0.56420140
H       2.48866270     6.13627909     1.00426027
