21
species 21; E = -1287.7369633898 Ha; i = 127 cm-1
O      -1.04710945    -0.31278763     1.41905604
O       1.32749853    -0.71436513    -1.36990788
O      -2.11076869    -0.26289395    -1.20262144
O      -1.25136837    -3.74187136    -0.47587756
C      -0.44793534    -1.01555769     0.31782891
C       0.66990821    -0.14498900    -0.27054383
C      -1.48300846    -1.39070565    -0.69091314
C      -1.79742333    -2.63687948    -1.04022106
H      -0.02711436    -1.93583723     0.71932513
H       0.22200577     0.80024987    -0.59531995
H       1.35909026     0.08769968     0.55357297
H      -2.56776338    -2.79412005    -1.80023557
H      -2.89010413    -0.51962019    -1.70969587
H      -1.62590211     0.35749418     1.03267614
H      -0.62576285    -4.25220785    -1.17760848
Ca      2.44536268    -4.50509597    -2.48037069
O       0.22321008    -4.94834838    -2.06400092
H      -0.31070304    -5.60585868    -2.51686884
O       2.68337410    -2.87838377    -0.90128559
H       2.90280695    -2.98247080     0.02681604
H       1.82450773    -1.55930811    -1.09684003
