21
species 18; E = -1287.7302960980 Ha; i = 159 cm-1
O      -0.72141250     1.73217924    -1.78247022
O       1.25091049    -1.35337649    -1.50448694
O      -1.63637003    -1.59786134    -1.10072981
O      -3.85777342    -0.79982158    -2.26293466
C      -0.40620375     0.43689105    -1.29777535
C       0.78428677    -0.19650258    -2.07352084
C      -1.62129313    -0.42817304    -1.45085503
C      -2.84772220     0.16273235    -2.09361663
H      -0.14991967     0.45745852    -0.23352642
H       0.44601623    -0.33031204    -3.11797998
H       1.54505639     0.60461991    -2.10566285
H      -2.55439553     0.60254616    -3.05042582
H      -3.18355346     0.99048258    -1.46002504
H      -0.03798976     2.33854945    -1.47639413
H      -3.51915892    -1.61723304    -1.86544359
Ca      0.26900062    -3.36407734    -0.75888292
O      -0.14223938    -5.44981102    -0.44540283
H      -0.13263583    -6.40391441    -0.42140468
O       0.99910297    -1.46165789     1.01638503
H       1.81351225    -1.52331182     1.52641017
H       1.26231361    -1.22363109     0.06724838
