      34
best product-like step 868
   C        -1.5760000000        -0.8160000000         0.3580000000
   C        -0.3610000000        -2.5930000000         1.3530000000
   H        -0.8760000000        -3.2070000000         2.1040000000
   C         0.1450000000        -1.2650000000         1.9210000000
   H         0.0880000000        -1.2280000000         3.0350000000
   B        -2.5540000000        -0.0310000000        -0.5780000000
   N        -0.7400000000        -0.3090000000         1.3100000000
   N        -1.3440000000        -2.1660000000         0.3150000000
   C        -0.5350000000         1.0600000000         1.6620000000
   H        -1.0700000000         1.7170000000         0.9710000000
   H        -0.8840000000         1.3070000000         2.6740000000
   H         0.5320000000         1.2970000000         1.5790000000
   C        -2.2930000000        -3.1760000000        -0.1360000000
   H        -3.1850000000        -2.7270000000        -0.5710000000
   H        -1.8370000000        -3.8370000000        -0.8890000000
   H        -2.6360000000        -3.7850000000         0.7160000000
   N        -2.6230000000        -0.6790000000        -1.8520000000
   N        -2.5290000000        -1.3030000000        -2.8250000000
   C        -3.2720000000         1.3530000000        -0.2840000000
   C        -3.5660000000         2.4130000000        -1.1650000000
   C        -3.7940000000         1.5740000000         0.9900000000
   C        -4.6070000000         3.3180000000        -0.9260000000
   H        -3.1400000000         2.4120000000        -2.1700000000
   C        -4.8540000000         2.4980000000         1.2320000000
   H        -3.6090000000         0.9290000000         1.8460000000
   C        -5.3250000000         3.3000000000         0.2350000000
   H        -4.8960000000         3.9490000000        -1.7430000000
   H        -5.3920000000         2.4470000000         2.1820000000
   H        -6.2340000000         3.8900000000         0.3470000000
   H         1.1980000000        -1.0560000000         1.6280000000
   H         0.4200000000        -3.2280000000         0.9250000000
   C         1.9190000000         0.2960000000        -2.0200000000
   O         1.9410000000        -0.4500000000        -1.0880000000
   O         1.9780000000         1.0800000000        -2.8990000000
