      34
best bond-forming step 52
   C        -1.9790000000        -0.9640000000         0.1600000000
   C        -1.5880000000        -3.0980000000         0.8840000000
   H        -2.4980000000        -3.7110000000         0.7760000000
   C        -1.7000000000        -2.1220000000         2.0830000000
   H        -2.3150000000        -2.5300000000         2.8900000000
   B        -2.0070000000         0.3210000000        -0.6190000000
   N        -2.3300000000        -0.9370000000         1.4960000000
   N        -1.4860000000        -2.1760000000        -0.2430000000
   C        -2.2530000000         0.3090000000         2.2840000000
   H        -1.2090000000         0.6320000000         2.4180000000
   H        -2.8200000000         1.1140000000         1.8260000000
   H        -2.6880000000         0.0920000000         3.2650000000
   C        -1.5140000000        -2.6370000000        -1.6290000000
   H        -2.4080000000        -2.2750000000        -2.1500000000
   H        -0.6300000000        -2.3210000000        -2.1910000000
   H        -1.5290000000        -3.7290000000        -1.6070000000
   N        -1.4840000000         0.3740000000        -1.9620000000
   N        -0.7280000000         0.5060000000        -2.8430000000
   C        -3.1230000000         1.3650000000        -0.5720000000
   C        -2.7350000000         2.5750000000        -1.1760000000
   C        -4.4370000000         1.1270000000        -0.0860000000
   C        -3.6740000000         3.6440000000        -1.2200000000
   H        -1.7210000000         2.7290000000        -1.5350000000
   C        -5.3260000000         2.2140000000        -0.1020000000
   H        -4.6790000000         0.1290000000         0.2710000000
   C        -4.9490000000         3.4640000000        -0.6390000000
   H        -3.3400000000         4.5620000000        -1.7230000000
   H        -6.3200000000         2.0570000000         0.3180000000
   H        -5.6470000000         4.3000000000        -0.6300000000
   H        -0.7130000000        -1.8730000000         2.4680000000
   H        -0.7130000000        -3.7450000000         0.9650000000
   C         2.5700000000         0.0810000000        -0.2660000000
   O         2.8570000000         0.0700000000         0.8720000000
   O         2.0650000000         0.0980000000        -1.3080000000
