      34
final step 1000
   C        -1.3540000000        -0.6490000000         0.4780000000
   C        -0.5230000000        -2.5460000000         1.4490000000
   H        -1.0520000000        -3.0760000000         2.2550000000
   C         0.2860000000        -1.3570000000         1.9460000000
   H         0.3020000000        -1.2420000000         3.0410000000
   B        -2.2720000000         0.1490000000        -0.3500000000
   N        -0.3570000000        -0.2370000000         1.3160000000
   N        -1.4270000000        -2.0140000000         0.4630000000
   C         0.2900000000         1.0490000000         1.3000000000
   H        -0.3490000000         1.7640000000         0.7680000000
   H         0.4230000000         1.4310000000         2.3250000000
   H         1.2780000000         1.0180000000         0.8080000000
   C        -2.2610000000        -3.0070000000        -0.2130000000
   H        -3.2760000000        -3.1150000000         0.1860000000
   H        -2.2850000000        -2.8870000000        -1.3020000000
   H        -1.7070000000        -3.9420000000        -0.0700000000
   N        -2.9450000000        -0.5610000000        -1.3570000000
   N        -3.5730000000        -0.9530000000        -2.2520000000
   C        -3.2300000000         1.3590000000        -0.1250000000
   C        -3.8620000000         1.9260000000        -1.2450000000
   C        -3.8390000000         1.6050000000         1.1110000000
   C        -4.9800000000         2.7190000000        -1.1240000000
   H        -3.4470000000         1.8040000000        -2.2480000000
   C        -4.9280000000         2.5150000000         1.2290000000
   H        -3.4040000000         1.2170000000         2.0320000000
   C        -5.4860000000         3.0340000000         0.0900000000
   H        -5.3980000000         3.1890000000        -1.9880000000
   H        -5.2300000000         2.7770000000         2.2270000000
   H        -6.2660000000         3.7880000000         0.2500000000
   H         1.3390000000        -1.4620000000         1.6170000000
   H         0.1710000000        -3.2830000000         1.0120000000
   C         2.1220000000         0.3610000000        -2.2830000000
   O         2.3650000000        -0.5480000000        -1.5920000000
   O         1.8680000000         1.2230000000        -3.0550000000
