      36
final step 1000
   C        -2.2810000000         0.6000000000        -0.1700000000
   C        -4.6890000000         0.7170000000         0.4720000000
   H        -5.6310000000         0.0780000000         0.2570000000
   C        -4.0390000000         1.7660000000        -0.6230000000
   H        -4.6970000000         2.0720000000        -1.4050000000
   B        -0.9900000000         0.4910000000         0.6810000000
   N        -2.5650000000         1.5940000000        -1.0190000000
   N        -3.4240000000        -0.1680000000         0.2740000000
   C        -2.4840000000         2.9530000000        -1.9260000000
   H        -2.2890000000         3.5340000000        -1.0490000000
   H        -1.6200000000         2.8820000000        -2.6940000000
   H        -3.5120000000         2.9980000000        -2.2680000000
   C        -2.9090000000        -1.6990000000         1.1210000000
   H        -2.0290000000        -1.6120000000         0.5880000000
   H        -2.7590000000        -1.3390000000         2.1260000000
   H        -3.6480000000        -2.4790000000         1.0410000000
   N        -0.2420000000         1.0390000000        -2.6820000000
   N        -0.6290000000         0.3560000000        -1.9170000000
   H        -4.1560000000         2.5620000000         0.1700000000
   H        -4.7590000000         1.1040000000         1.5580000000
   C         0.0940000000         0.8140000000         1.8410000000
   C         1.4390000000         0.2580000000         0.2190000000
   C        -0.4070000000         3.0060000000         1.4190000000
   C        -0.5860000000         0.0290000000         2.9900000000
   H         0.3470000000         2.7550000000         0.3960000000
   H        -1.3730000000         3.5930000000         1.0380000000
   H         0.3280000000         2.4930000000         2.1650000000
   H        -1.6710000000         0.5230000000         3.1630000000
   H        -0.7030000000        -0.8260000000         2.4420000000
   H        -0.0310000000         0.3080000000         3.9780000000
   H         2.2880000000         0.8170000000         0.7850000000
   H         1.7790000000        -0.6040000000        -0.2720000000
   H         1.9920000000         0.9890000000        -0.7590000000
   C        -0.6310000000        -2.8830000000        -1.3250000000
   O        -0.9000000000        -2.0610000000        -0.4160000000
   O        -0.7720000000        -4.0410000000        -1.8530000000
