      36
best bond-forming step 849
   C        -3.1230000000        -0.2960000000        -0.4110000000
   C        -4.7610000000         1.0080000000         0.8780000000
   H        -5.8510000000         0.9600000000         0.7440000000
   C        -4.3260000000         2.1830000000         0.0640000000
   H        -4.9140000000         2.2180000000        -0.8730000000
   B        -2.1340000000         0.7590000000        -0.1770000000
   N        -2.7820000000         2.2120000000        -0.4510000000
   N        -4.3460000000        -0.2350000000         0.2120000000
   C        -2.3680000000         2.6880000000        -1.6860000000
   H        -2.3470000000         3.8120000000        -1.5310000000
   H        -1.3410000000         2.2770000000        -1.8130000000
   H        -3.1390000000         2.4490000000        -2.4320000000
   C        -3.8500000000        -1.2900000000         1.3010000000
   H        -2.7850000000        -1.5840000000         1.1340000000
   H        -3.8900000000        -1.0030000000         2.3560000000
   H        -4.3650000000        -2.2340000000         1.1450000000
   N         1.5900000000        -0.1960000000        -2.0870000000
   N         0.5000000000        -0.1740000000        -2.3190000000
   H        -4.6260000000         3.1030000000         0.5980000000
   H        -4.5580000000         1.0590000000         1.9500000000
   C         0.5930000000         0.9610000000         0.9280000000
   C         1.5940000000        -0.2270000000         1.0850000000
   C        -0.6270000000         1.2190000000         0.4160000000
   C        -0.1960000000        -0.1360000000         2.4070000000
   H        -0.5660000000         2.1590000000        -0.1320000000
   H         1.0090000000         2.1680000000         0.8690000000
   H        -0.6070000000         1.7830000000         1.4580000000
   H        -1.1400000000         0.3330000000         2.6980000000
   H        -0.4410000000        -1.2140000000         2.3250000000
   H         0.0120000000        -0.2900000000         3.5330000000
   H         2.5300000000         0.0680000000         1.6370000000
   H         1.7210000000        -1.3440000000         0.6750000000
   H         2.4970000000        -0.2300000000         0.3450000000
   C        -0.7650000000        -1.8160000000        -1.1300000000
   O        -1.9530000000        -1.8280000000        -0.9630000000
   O         0.5020000000        -2.1040000000        -1.4300000000
