      36
best product-like step 331
   C        -2.4170000000         1.1800000000        -0.2190000000
   C        -4.2000000000         2.1660000000         0.9370000000
   H        -5.2170000000         1.7390000000         0.9900000000
   C        -4.0230000000         2.7620000000        -0.4660000000
   H        -4.9630000000         2.9230000000        -0.9860000000
   B        -1.1520000000         0.5000000000        -0.6590000000
   N        -3.2440000000         1.7430000000        -1.1510000000
   N        -3.1700000000         1.1080000000         1.0020000000
   C        -2.7770000000         2.0020000000        -2.4780000000
   H        -1.9800000000         2.7590000000        -2.4890000000
   H        -2.3370000000         1.1070000000        -2.9120000000
   H        -3.5950000000         2.3200000000        -3.1230000000
   C        -3.8100000000        -0.0370000000         1.7200000000
   H        -3.4840000000        -1.0150000000         1.4200000000
   H        -3.5810000000         0.0640000000         2.7850000000
   H        -4.9090000000        -0.0350000000         1.6150000000
   N        -1.0820000000        -0.2140000000        -2.4600000000
   N        -1.5340000000        -1.2180000000        -2.7660000000
   H        -3.4480000000         3.7070000000        -0.4600000000
   H        -4.0940000000         2.8890000000         1.7570000000
   C        -0.5780000000        -0.4600000000         0.5150000000
   C         0.4260000000        -3.1420000000         1.1140000000
   C        -1.4410000000        -1.2900000000        -0.3140000000
   C        -0.6380000000         0.0580000000         1.9740000000
   H        -2.2990000000        -1.7950000000         0.0250000000
   H        -2.1180000000        -0.5180000000        -0.8620000000
   H        -0.7110000000        -1.7870000000        -1.0060000000
   H        -1.0970000000         1.0590000000         2.0150000000
   H        -1.1780000000        -0.7060000000         2.5560000000
   H         0.4250000000         0.0010000000         2.2720000000
   H         1.2180000000        -2.6660000000         1.6780000000
   H        -0.6410000000        -3.0210000000         1.3920000000
   H         0.5950000000        -3.0650000000         0.0200000000
   C         0.7140000000        -0.7310000000         0.0920000000
   O         1.6630000000        -0.6320000000         0.9490000000
   O         1.0720000000        -0.9580000000        -1.1400000000
