      36
best TS-like step 282
   C        -2.6190000000         1.0270000000        -0.2530000000
   C        -4.1070000000         2.4440000000         0.9150000000
   H        -5.1430000000         2.1080000000         1.1090000000
   C        -3.9630000000         2.9010000000        -0.5470000000
   H        -4.8970000000         3.2180000000        -1.0070000000
   B        -1.2650000000         0.2920000000        -0.7270000000
   N        -3.4550000000         1.6520000000        -1.1760000000
   N        -3.1580000000         1.3030000000         1.0510000000
   C        -3.0630000000         1.7260000000        -2.5740000000
   H        -2.2040000000         2.3970000000        -2.7130000000
   H        -2.7620000000         0.7410000000        -2.9280000000
   H        -3.8970000000         2.0860000000        -3.1910000000
   C        -3.6220000000         0.3050000000         2.1120000000
   H        -3.2590000000        -0.7120000000         1.9480000000
   H        -3.2960000000         0.6300000000         3.1080000000
   H        -4.7170000000         0.2290000000         2.1020000000
   N        -1.2040000000        -0.2690000000        -2.0970000000
   N        -1.1010000000        -1.0200000000        -3.0050000000
   H        -3.2060000000         3.6970000000        -0.6530000000
   H        -3.8660000000         3.2210000000         1.6500000000
   C        -0.5870000000        -0.7720000000         0.4490000000
   C         0.2310000000        -2.4330000000         0.2390000000
   C        -1.7150000000        -1.5760000000        -0.1450000000
   C        -0.9630000000        -0.2390000000         1.9410000000
   H        -1.9510000000        -2.5010000000         0.3580000000
   H        -2.6390000000        -1.0080000000        -0.1120000000
   H        -1.4040000000        -1.8240000000        -1.1450000000
   H        -1.7010000000         0.4860000000         1.7660000000
   H        -1.2640000000        -1.0740000000         2.5750000000
   H        -0.0930000000         0.2880000000         2.3600000000
   H         1.1030000000        -2.4870000000         0.9300000000
   H        -0.4750000000        -3.2300000000         0.4940000000
   H         0.5270000000        -2.4890000000        -0.8180000000
   C         1.3350000000        -0.8500000000         0.1230000000
   O         1.4930000000        -0.6180000000         1.2980000000
   O         1.5790000000        -1.0530000000        -1.0560000000
