      39
final step 1000
   C        -2.8260000000         0.1090000000        -0.7430000000
   C        -4.5820000000         1.7380000000        -0.7550000000
   H        -5.3020000000         2.0530000000         0.0170000000
   C        -5.0870000000         0.4950000000        -1.4910000000
   H        -5.8830000000        -0.0360000000        -0.9350000000
   B        -1.3160000000        -0.3520000000        -0.4690000000
   N        -3.8810000000        -0.3930000000        -1.5980000000
   N        -3.3410000000         1.2430000000        -0.1200000000
   C        -4.2550000000        -1.8270000000        -1.7260000000
   H        -4.3940000000        -2.3150000000        -0.7510000000
   H        -5.1900000000        -1.9130000000        -2.2770000000
   H        -3.4610000000        -2.3560000000        -2.2710000000
   C        -2.6220000000         2.2210000000         0.7090000000
   H        -1.8150000000         2.7740000000         0.2010000000
   H        -3.3560000000         2.9560000000         1.0310000000
   H        -2.1970000000         1.7580000000         1.6080000000
   N        -0.4320000000         0.7380000000        -0.7080000000
   N         0.2600000000         1.6680000000        -0.6480000000
   H        -5.4880000000         0.6880000000        -2.5020000000
   H        -4.4050000000         2.5820000000        -1.4530000000
   C        -0.6180000000        -1.7610000000        -0.3990000000
   C        -0.3560000000        -2.2560000000        -1.8630000000
   C        -1.5460000000        -2.7120000000         0.4020000000
   C         0.7470000000        -1.5720000000         0.3380000000
   H        -1.0770000000        -3.6830000000         0.5840000000
   H        -1.8010000000        -2.2170000000         1.3590000000
   H        -2.4750000000        -2.8980000000        -0.1430000000
   H         1.4300000000        -0.9720000000        -0.2760000000
   H         0.5900000000        -1.0230000000         1.2900000000
   H         1.2470000000        -2.5160000000         0.5600000000
   H         0.2820000000        -1.5490000000        -2.4080000000
   H         0.1250000000        -3.2400000000        -1.8570000000
   H        -1.2880000000        -2.3290000000        -2.4360000000
   C         1.2810000000         1.8570000000         2.7330000000
   C         2.7030000000         1.8920000000         2.3120000000
   H         2.9470000000         2.8600000000         1.8720000000
   H         3.3550000000         1.7440000000         3.1990000000
   H         2.8410000000         1.0580000000         1.6180000000
   N         0.1820000000         1.7240000000         3.0680000000
