      39
best TS-like step 169
   C        -2.6880000000         0.7670000000        -0.3550000000
   C        -4.4690000000         1.9690000000         0.4250000000
   H        -5.2960000000         1.2460000000         0.4250000000
   C        -4.1900000000         2.4360000000        -0.9900000000
   H        -5.1140000000         2.5110000000        -1.5720000000
   B        -1.4520000000        -0.1830000000        -0.4120000000
   N        -3.3390000000         1.3220000000        -1.4500000000
   N        -3.2350000000         1.2900000000         0.7820000000
   C        -3.2140000000         1.0900000000        -2.8870000000
   H        -2.4800000000         1.7400000000        -3.3740000000
   H        -2.9210000000         0.0510000000        -3.0840000000
   H        -4.2060000000         1.2160000000        -3.3300000000
   C        -2.8020000000         1.3000000000         2.1800000000
   H        -1.8770000000         0.7240000000         2.2790000000
   H        -2.5830000000         2.3300000000         2.4770000000
   H        -3.5670000000         0.8610000000         2.8320000000
   N        -0.8390000000         0.0710000000        -1.6960000000
   N        -0.3170000000         0.3840000000        -2.6590000000
   H        -3.6600000000         3.3950000000        -1.0140000000
   H        -4.6970000000         2.7780000000         1.1260000000
   C        -1.3060000000        -1.6640000000         0.3810000000
   C        -0.9900000000        -2.8160000000        -0.5930000000
   C        -2.6550000000        -1.9440000000         1.1060000000
   C        -0.3580000000        -1.9330000000         1.5820000000
   H        -2.7280000000        -3.0060000000         1.3790000000
   H        -2.7330000000        -1.3820000000         2.0470000000
   H        -3.5510000000        -1.7090000000         0.5320000000
   H         0.7020000000        -2.1290000000         1.2680000000
   H        -0.3480000000        -1.1270000000         2.3190000000
   H        -0.7110000000        -2.8540000000         2.0360000000
   H         0.0110000000        -2.6810000000        -1.0560000000
   H        -0.9600000000        -3.7570000000        -0.0420000000
   H        -1.7130000000        -2.9100000000        -1.4080000000
   C         1.9680000000         0.2530000000         1.1720000000
   C         3.0740000000         0.1390000000         0.2130000000
   H         2.9110000000         0.7780000000        -0.6680000000
   H         4.0370000000         0.4070000000         0.6480000000
   H         3.1100000000        -0.8910000000        -0.1890000000
   N         1.2450000000         0.2720000000         2.0970000000
