      39
best product-like step 161
   C        -2.6830000000         0.7540000000        -0.3560000000
   C        -4.4600000000         1.9710000000         0.4200000000
   H        -5.3050000000         1.2600000000         0.3880000000
   C        -4.1600000000         2.4580000000        -0.9960000000
   H        -5.0880000000         2.5530000000        -1.5690000000
   B        -1.4490000000        -0.1790000000        -0.4150000000
   N        -3.3420000000         1.3360000000        -1.4370000000
   N        -3.2510000000         1.2660000000         0.7750000000
   C        -3.1760000000         1.1010000000        -2.8500000000
   H        -2.4250000000         1.7450000000        -3.3260000000
   H        -2.9010000000         0.0660000000        -3.0390000000
   H        -4.1390000000         1.2390000000        -3.3530000000
   C        -2.8310000000         1.2730000000         2.1590000000
   H        -1.9110000000         0.6980000000         2.2730000000
   H        -2.6040000000         2.3010000000         2.4820000000
   H        -3.5890000000         0.8310000000         2.8170000000
   N        -0.8170000000         0.0650000000        -1.6740000000
   N        -0.3060000000         0.4020000000        -2.6630000000
   H        -3.6130000000         3.4200000000        -1.0340000000
   H        -4.7050000000         2.7870000000         1.1000000000
   C        -1.3260000000        -1.6340000000         0.3940000000
   C        -1.0420000000        -2.7940000000        -0.5650000000
   C        -2.6780000000        -1.9550000000         1.1000000000
   C        -0.3770000000        -1.9140000000         1.5860000000
   H        -2.7220000000        -3.0310000000         1.3070000000
   H        -2.7730000000        -1.4480000000         2.0650000000
   H        -3.5920000000        -1.7300000000         0.5230000000
   H         0.6240000000        -2.1240000000         1.2440000000
   H        -0.3560000000        -1.1550000000         2.3570000000
   H        -0.7590000000        -2.8530000000         2.0330000000
   H        -0.0600000000        -2.6810000000        -1.0160000000
   H        -1.0460000000        -3.7470000000        -0.0000000000
   H        -1.7770000000        -2.8900000000        -1.3740000000
   C         2.0010000000         0.2510000000         1.1760000000
   C         3.0040000000         0.1180000000         0.0880000000
   H         2.7470000000         0.7500000000        -0.7650000000
   H         4.0050000000         0.4170000000         0.4420000000
   H         3.0070000000        -0.9190000000        -0.2590000000
   N         1.3560000000         0.2470000000         2.1650000000
