      39
best bond-forming step 131
   C        -2.6580000000         0.7720000000        -0.3640000000
   C        -4.4910000000         2.0370000000         0.3910000000
   H        -5.4170000000         1.4290000000         0.3240000000
   C        -4.0820000000         2.5320000000        -0.9840000000
   H        -4.9040000000         2.7020000000        -1.6930000000
   B        -1.4730000000        -0.2450000000        -0.4260000000
   N        -3.3190000000         1.3530000000        -1.3940000000
   N        -3.3240000000         1.1820000000         0.7460000000
   C        -3.0390000000         1.1280000000        -2.7710000000
   H        -2.1930000000         1.7450000000        -3.1370000000
   H        -2.7870000000         0.0720000000        -2.9330000000
   H        -3.9550000000         1.3640000000        -3.3410000000
   C        -2.8880000000         1.1510000000         2.1160000000
   H        -1.9650000000         0.5750000000         2.2270000000
   H        -2.7160000000         2.1880000000         2.4680000000
   H        -3.6820000000         0.6900000000         2.7310000000
   N        -0.7190000000         0.0630000000        -1.6100000000
   N        -0.2650000000         0.4240000000        -2.6090000000
   H        -3.4410000000         3.4410000000        -0.9300000000
   H        -4.6150000000         2.7960000000         1.1770000000
   C        -1.4610000000        -1.5830000000         0.4910000000
   C        -1.2250000000        -2.7240000000        -0.5280000000
   C        -2.8410000000        -1.9720000000         1.0550000000
   C        -0.4220000000        -1.8510000000         1.6010000000
   H        -2.8400000000        -3.0720000000         1.1670000000
   H        -3.0460000000        -1.5700000000         2.0540000000
   H        -3.6730000000        -1.6980000000         0.3900000000
   H         0.6080000000        -1.9400000000         1.2390000000
   H        -0.3610000000        -1.0790000000         2.3900000000
   H        -0.6730000000        -2.8210000000         2.0650000000
   H        -0.2430000000        -2.7110000000        -1.0310000000
   H        -1.2870000000        -3.6900000000        -0.0000000000
   H        -2.0010000000        -2.7180000000        -1.3140000000
   C         2.1990000000         0.2150000000         1.1920000000
   C         2.6960000000         0.0670000000        -0.2550000000
   H         2.0690000000         0.6060000000        -0.9910000000
   H         3.7550000000         0.3930000000        -0.3270000000
   H         2.6560000000        -0.9950000000        -0.5320000000
   N         1.8240000000         0.2070000000         2.3180000000
