      24
best bond-forming step 140
   C        -2.0420000000        -0.1750000000         0.3560000000
   C        -3.4490000000         1.4460000000        -0.5410000000
   H        -4.4940000000         1.1040000000        -0.6740000000
   C        -2.5150000000         0.9090000000        -1.6170000000
   H        -2.9890000000         0.7470000000        -2.5890000000
   B        -0.7490000000        -0.6610000000         1.2140000000
   N        -2.0570000000        -0.3510000000        -1.0140000000
   N        -2.8680000000         0.8410000000         0.6510000000
   C        -1.7910000000        -1.3920000000        -2.0110000000
   H        -1.3820000000        -2.3050000000        -1.5700000000
   H        -2.7580000000        -1.6870000000        -2.4540000000
   H        -1.1280000000        -0.9990000000        -2.7920000000
   C        -3.6610000000         1.0180000000         1.8390000000
   H        -3.1900000000         0.5350000000         2.6940000000
   H        -3.7800000000         2.0860000000         2.0520000000
   H        -4.6490000000         0.5670000000         1.6670000000
   N        -0.4510000000        -2.1950000000         1.1110000000
   N        -0.4580000000        -3.1980000000         0.5900000000
   H        -1.6480000000         1.5830000000        -1.7620000000
   H        -3.4510000000         2.5380000000        -0.4390000000
   H        -0.6830000000        -0.2280000000         2.3840000000
   C         1.2740000000        -0.2550000000         0.4340000000
   O         2.4030000000        -0.0770000000         0.5400000000
   O         0.1070000000        -0.3430000000         0.2590000000
