      24
best product-like step 165
   C        -2.1050000000        -0.4220000000         0.1410000000
   C        -3.8910000000         1.0600000000         0.1780000000
   H        -4.7100000000         1.0430000000         0.9190000000
   C        -4.1770000000         0.1490000000        -0.9680000000
   H        -5.1750000000        -0.3310000000        -0.9390000000
   B        -0.4730000000        -0.8210000000         0.9350000000
   N        -3.0440000000        -0.7980000000        -0.8530000000
   N        -2.6160000000         0.6020000000         0.7420000000
   C        -2.9570000000        -1.8850000000        -1.7560000000
   H        -2.7080000000        -1.6520000000        -2.8090000000
   H        -2.1530000000        -2.5310000000        -1.3760000000
   H        -3.9060000000        -2.4510000000        -1.7810000000
   C        -1.9040000000         1.5000000000         1.6340000000
   H        -2.2890000000         1.6710000000         2.6410000000
   H        -0.9490000000         1.0140000000         1.8220000000
   H        -1.6390000000         2.4510000000         1.1420000000
   N         0.4550000000        -1.8390000000         0.0980000000
   N         0.1340000000        -2.6090000000        -0.7200000000
   H        -4.0760000000         0.6860000000        -1.9290000000
   H        -3.7970000000         2.0780000000        -0.2540000000
   H        -1.1190000000        -1.6180000000         1.6370000000
   C         1.8050000000         0.0970000000         0.9360000000
   O         2.0670000000         0.5710000000        -0.1740000000
   O         0.5210000000        -0.0950000000         1.5370000000
