      24
best bond-forming step 168
   C        -2.1200000000        -0.4230000000         0.1240000000
   C        -3.8900000000         1.0620000000         0.1780000000
   H        -4.6770000000         1.0340000000         0.9490000000
   C        -4.1980000000         0.1630000000        -0.9680000000
   H        -5.1980000000        -0.3040000000        -0.9150000000
   B        -0.4850000000        -0.8490000000         0.9490000000
   N        -3.0520000000        -0.7930000000        -0.8420000000
   N        -2.5990000000         0.5840000000         0.7480000000
   C        -2.9690000000        -1.8840000000        -1.7560000000
   H        -2.7120000000        -1.6260000000        -2.8070000000
   H        -2.1540000000        -2.5360000000        -1.4080000000
   H        -3.9020000000        -2.4830000000        -1.7670000000
   C        -1.9020000000         1.4960000000         1.6350000000
   H        -2.2980000000         1.6290000000         2.6470000000
   H        -0.9080000000         1.0600000000         1.7670000000
   H        -1.6720000000         2.4470000000         1.1230000000
   N         0.4860000000        -1.8500000000         0.1280000000
   N         0.1450000000        -2.5900000000        -0.7250000000
   H        -4.0850000000         0.6750000000        -1.9360000000
   H        -3.7430000000         2.0970000000        -0.2060000000
   H        -1.1260000000        -1.6320000000         1.6290000000
   C         1.8300000000         0.1030000000         0.9450000000
   O         2.0600000000         0.5800000000        -0.1870000000
   O         0.5040000000        -0.0950000000         1.5060000000
