      24
best product-like step 187
   C        -2.1680000000        -0.3900000000         0.2070000000
   C        -3.4200000000         1.4260000000        -0.4430000000
   H        -4.4320000000         0.9790000000        -0.4160000000
   C        -2.6950000000         0.8980000000        -1.6790000000
   H        -3.4230000000         0.6070000000        -2.4400000000
   B        -1.3550000000        -0.9640000000         1.3940000000
   N        -2.0060000000        -0.3480000000        -1.2070000000
   N        -2.6440000000         0.8450000000         0.6850000000
   C        -2.1700000000        -1.4390000000        -2.2180000000
   H        -2.4080000000        -2.4080000000        -1.7640000000
   H        -3.0100000000        -1.2100000000        -2.8840000000
   H        -1.2570000000        -1.4990000000        -2.8140000000
   C        -3.3490000000         0.9600000000         2.0290000000
   H        -2.8280000000         0.3900000000         2.7990000000
   H        -3.3440000000         2.0110000000         2.3250000000
   H        -4.3790000000         0.5940000000         1.9350000000
   N        -0.2650000000        -2.2530000000         1.4340000000
   N        -0.0810000000        -2.9750000000         0.5170000000
   H        -1.9980000000         1.6130000000        -2.1330000000
   H        -3.5150000000         2.5130000000        -0.3700000000
   H        -1.1520000000        -0.2480000000         2.3680000000
   C         1.2530000000        -0.3890000000         0.6900000000
   O         2.3910000000        -0.1300000000         0.3830000000
   O         0.1690000000         0.1650000000         0.1160000000
