      24
best bond-forming step 294
   C        -4.0890000000         0.2760000000         1.3930000000
   C        -5.6200000000         1.8240000000         0.4040000000
   H        -6.6850000000         1.4910000000         0.5210000000
   C        -5.0020000000         0.8620000000        -0.7160000000
   H        -5.9030000000         0.4980000000        -1.2220000000
   B        -2.7150000000        -0.8200000000         2.3420000000
   N        -4.4690000000        -0.1920000000         0.1640000000
   N        -4.7030000000         1.5610000000         1.4570000000
   C        -3.8570000000        -1.5590000000        -0.0870000000
   H        -2.8850000000        -1.5880000000        -0.6230000000
   H        -3.5050000000        -1.9860000000         0.8530000000
   H        -4.5860000000        -2.2770000000        -0.4680000000
   C        -4.4420000000         2.5010000000         2.5180000000
   H        -5.2180000000         3.2760000000         2.4650000000
   H        -4.4150000000         2.0430000000         3.5180000000
   H        -3.4860000000         3.0290000000         2.4090000000
   N         5.0680000000        -2.8480000000        -2.1620000000
   N         6.0690000000        -3.4140000000        -2.1980000000
   H        -4.3980000000         1.3830000000        -1.4610000000
   H        -5.6020000000         2.9000000000         0.1630000000
   H        -3.3670000000        -1.0140000000         3.4460000000
   C         4.2560000000        -0.8270000000        -2.0810000000
   O         4.8960000000        -0.6930000000        -1.1760000000
   O        -1.6990000000        -1.0150000000         1.7310000000
