      24
final step 500
   C        -2.0220000000        -0.2030000000         0.0950000000
   C        -3.9400000000         1.2330000000         0.0000000000
   H        -4.7680000000         1.0900000000         0.7310000000
   C        -3.9230000000         0.3150000000        -1.2380000000
   H        -4.8140000000        -0.3220000000        -1.3520000000
   B        -0.8010000000        -1.4730000000         1.0990000000
   N        -2.7010000000        -0.4840000000        -1.0550000000
   N        -2.6230000000         0.9630000000         0.5680000000
   C        -2.6570000000        -1.7950000000        -1.6870000000
   H        -1.7240000000        -2.2490000000        -1.3240000000
   H        -3.5460000000        -2.4270000000        -1.5070000000
   H        -2.5290000000        -1.6430000000        -2.7630000000
   C        -2.4830000000         1.7720000000         1.7280000000
   H        -1.7770000000         2.5890000000         1.5220000000
   H        -3.4740000000         2.1870000000         1.9750000000
   H        -2.1370000000         1.1820000000         2.5830000000
   N         0.1710000000        -2.3440000000         0.4110000000
   N         0.4880000000        -2.5730000000        -0.7160000000
   H        -3.8460000000         0.9560000000        -2.1410000000
   H        -3.9540000000         2.2880000000        -0.3080000000
   H        -1.3990000000        -1.8420000000         2.0220000000
   C         1.4720000000        -0.1290000000         0.8520000000
   O         2.3020000000         0.0180000000        -0.0180000000
   O         0.4890000000         0.1070000000         1.6090000000
