      24
final step 500
   C        -3.2300000000        -0.0340000000         0.9190000000
   C        -4.8740000000         1.6420000000         0.1500000000
   H        -5.5300000000         1.6720000000         0.9950000000
   C        -4.8400000000         0.5600000000        -0.8280000000
   H        -5.7430000000        -0.0150000000        -1.0580000000
   B        -1.7100000000        -1.2040000000         1.9360000000
   N        -3.7390000000        -0.4130000000        -0.3120000000
   N        -3.6350000000         1.2400000000         1.1020000000
   C        -3.6660000000        -1.7050000000        -0.8480000000
   H        -4.6400000000        -2.2630000000        -0.9420000000
   H        -3.2020000000        -1.7110000000        -1.8500000000
   H        -3.0490000000        -2.3430000000        -0.1800000000
   C        -3.5930000000         2.3080000000         2.1440000000
   H        -3.9670000000         3.1960000000         1.6070000000
   H        -4.1140000000         2.0880000000         3.0920000000
   H        -2.5690000000         2.5920000000         2.4090000000
   N         3.3050000000        -2.7540000000        -1.3420000000
   N         3.2120000000        -3.8530000000        -1.2670000000
   H        -4.4420000000         0.8400000000        -1.7920000000
   H        -4.5960000000         2.6120000000        -0.2480000000
   H        -2.6610000000        -1.8990000000         2.2710000000
   C         4.0330000000         0.1610000000        -1.2470000000
   O         3.2750000000         0.5070000000        -0.4590000000
   O        -0.5760000000        -0.8820000000         1.6700000000
