      24
final step 500
   C        -4.4840000000         0.3810000000         1.3610000000
   C        -5.9000000000         2.0070000000         0.4790000000
   H        -6.7730000000         2.5770000000         0.8660000000
   C        -5.9810000000         0.7400000000        -0.4060000000
   H        -6.9110000000         0.2050000000        -0.2060000000
   B        -3.2170000000        -0.7600000000         2.8950000000
   N        -4.8710000000         0.0180000000         0.0720000000
   N        -4.9930000000         1.5690000000         1.5510000000
   C        -4.5450000000        -1.3070000000        -0.3340000000
   H        -4.3090000000        -1.4910000000        -1.3790000000
   H        -3.5610000000        -1.4770000000         0.1600000000
   H        -5.1770000000        -2.1390000000         0.0590000000
   C        -4.8380000000         2.4430000000         2.6820000000
   H        -5.1230000000         1.9920000000         3.6300000000
   H        -3.7770000000         2.6080000000         2.8650000000
   H        -5.3570000000         3.4000000000         2.4840000000
   N         6.6850000000        -3.1990000000        -3.1030000000
   N         7.3900000000        -4.0470000000        -2.9760000000
   H        -5.8610000000         1.1060000000        -1.4060000000
   H        -5.4190000000         2.7790000000        -0.2020000000
   H        -4.0900000000        -1.4470000000         2.9100000000
   C         5.7280000000        -1.2690000000        -1.4340000000
   O         4.9510000000        -0.5510000000        -1.9940000000
   O        -2.0350000000        -0.4880000000         2.9760000000
