      24
best product-like step 3
   C        -3.2480000000        -0.0340000000         0.9180000000
   C        -4.8690000000         1.6430000000         0.1450000000
   H        -5.5470000000         1.6390000000         0.9870000000
   C        -4.8540000000         0.5700000000        -0.8320000000
   H        -5.7680000000         0.0030000000        -1.0560000000
   B        -1.7130000000        -1.1790000000         1.9330000000
   N        -3.7530000000        -0.4030000000        -0.2990000000
   N        -3.6400000000         1.2360000000         1.0950000000
   C        -3.6730000000        -1.7000000000        -0.8300000000
   H        -4.5940000000        -2.3280000000        -0.9420000000
   H        -3.2220000000        -1.7230000000        -1.8360000000
   H        -2.9820000000        -2.3030000000        -0.2010000000
   C        -3.6010000000         2.2980000000         2.1600000000
   H        -4.0030000000         3.1460000000         1.5900000000
   H        -4.0830000000         2.0500000000         3.1220000000
   H        -2.5820000000         2.5940000000         2.3970000000
   N         3.2960000000        -2.7460000000        -1.3570000000
   N         3.2600000000        -3.8740000000        -1.2740000000
   H        -4.4520000000         0.8490000000        -1.8100000000
   H        -4.6010000000         2.6260000000        -0.2310000000
   H        -2.7280000000        -1.8270000000         2.3440000000
   C         4.0410000000         0.1720000000        -1.2490000000
   O         3.2990000000         0.4920000000        -0.4710000000
   O        -0.5880000000        -0.8860000000         1.6790000000
