      36
best TS-like step 230
   C        -2.6030000000         1.1870000000        -0.5210000000
   C        -4.5270000000         1.7540000000         0.7030000000
   H        -5.1680000000         0.8490000000         0.7760000000
   C        -4.6400000000         2.3940000000        -0.6720000000
   H        -5.5760000000         2.1370000000        -1.1770000000
   B        -1.5030000000         0.1370000000        -0.8530000000
   N        -3.4970000000         1.7910000000        -1.3920000000
   N        -3.1120000000         1.3990000000         0.7490000000
   C        -3.5480000000         1.7850000000        -2.8490000000
   H        -2.7090000000         2.3210000000        -3.2930000000
   H        -3.5500000000         0.7580000000        -3.2330000000
   H        -4.4770000000         2.2730000000        -3.1380000000
   C        -2.4220000000         1.1260000000         1.9900000000
   H        -1.3880000000         0.8530000000         1.7550000000
   H        -2.3930000000         2.0330000000         2.6090000000
   H        -2.8800000000         0.3090000000         2.5640000000
   N        -1.2220000000         0.1030000000        -2.2660000000
   N        -0.6680000000         0.2850000000        -3.2560000000
   H        -4.5540000000         3.4960000000        -0.6190000000
   H        -4.7860000000         2.4230000000         1.5290000000
  Si        -0.9410000000        -1.6010000000         0.2050000000
   C        -0.7140000000        -2.1960000000         2.0560000000
   C        -0.1100000000        -2.9380000000        -0.8320000000
   C        -2.8050000000        -2.1700000000         0.2300000000
   H        -0.2110000000        -3.1610000000         1.9470000000
   H        -0.1660000000        -1.5660000000         2.7890000000
   H        -1.7200000000        -2.3730000000         2.4230000000
   H        -0.6220000000        -2.9960000000        -1.7960000000
   H         0.9810000000        -2.8690000000        -0.9810000000
   H        -0.2940000000        -3.8590000000        -0.2690000000
   H        -2.9720000000        -3.1830000000         0.6050000000
   H        -3.3080000000        -1.4940000000         0.9290000000
   H        -3.3020000000        -2.0530000000        -0.7360000000
   C         1.5330000000         0.1830000000         0.8650000000
   O         0.8080000000         0.4760000000         1.7630000000
   O         2.2900000000        -0.1000000000         0.0070000000
