      36
best product-like step 131
   C        -2.5730000000         1.0460000000        -0.3490000000
   C        -4.5280000000         1.9820000000         0.6120000000
   H        -5.3840000000         1.2790000000         0.5380000000
   C        -4.2560000000         2.6470000000        -0.7250000000
   H        -5.1320000000         2.7980000000        -1.3710000000
   B        -1.3430000000         0.1750000000        -0.6330000000
   N        -3.3730000000         1.6270000000        -1.3000000000
   N        -3.2510000000         1.2520000000         0.8280000000
   C        -3.1160000000         1.6610000000        -2.7130000000
   H        -2.2430000000         2.2910000000        -2.9830000000
   H        -2.9560000000         0.6510000000        -3.1100000000
   H        -4.0190000000         2.0780000000        -3.1870000000
   C        -2.9930000000         0.7480000000         2.1470000000
   H        -1.9850000000         0.3260000000         2.2160000000
   H        -3.0770000000         1.5730000000         2.8770000000
   H        -3.7280000000        -0.0340000000         2.4200000000
   N        -0.8470000000         0.3990000000        -2.0000000000
   N        -0.5200000000         0.3870000000        -3.0900000000
   H        -3.7300000000         3.6180000000        -0.5860000000
   H        -4.7000000000         2.6690000000         1.4540000000
  Si        -1.3430000000        -1.6390000000         0.3840000000
   C        -0.5040000000        -1.7780000000         2.0820000000
   C        -0.5140000000        -2.6890000000        -0.9070000000
   C        -3.1810000000        -2.2980000000         0.5220000000
   H        -0.1790000000        -2.8390000000         2.1360000000
   H         0.3510000000        -1.1390000000         2.2660000000
   H        -1.2460000000        -1.6040000000         2.8860000000
   H        -1.1710000000        -2.6350000000        -1.7920000000
   H         0.4760000000        -2.3030000000        -1.1900000000
   H        -0.3800000000        -3.7410000000        -0.5950000000
   H        -3.2230000000        -3.3590000000         0.8500000000
   H        -3.7950000000        -1.7220000000         1.2360000000
   H        -3.6640000000        -2.2310000000        -0.4720000000
   C         1.7000000000         0.0080000000         0.3500000000
   O         1.6270000000         0.1160000000         1.5210000000
   O         1.7650000000        -0.0410000000        -0.8370000000
