      36
best bond-forming step 117
   C        -2.5720000000         1.0800000000        -0.3320000000
   C        -4.5330000000         2.0310000000         0.6090000000
   H        -5.4210000000         1.3790000000         0.5490000000
   C        -4.2050000000         2.6730000000        -0.7220000000
   H        -5.0590000000         2.8950000000        -1.3630000000
   B        -1.3530000000         0.1980000000        -0.5770000000
   N        -3.3720000000         1.6130000000        -1.3020000000
   N        -3.2910000000         1.2430000000         0.8290000000
   C        -3.0940000000         1.6690000000        -2.7070000000
   H        -2.2150000000         2.2670000000        -2.9680000000
   H        -2.9750000000         0.6770000000        -3.1360000000
   H        -3.9700000000         2.1080000000        -3.1870000000
   C        -3.0440000000         0.6890000000         2.1440000000
   H        -2.0380000000         0.2820000000         2.2170000000
   H        -3.1340000000         1.4880000000         2.8930000000
   H        -3.7510000000        -0.1080000000         2.4040000000
   N        -0.8420000000         0.3630000000        -1.9330000000
   N        -0.4820000000         0.3990000000        -3.0450000000
   H        -3.6190000000         3.5970000000        -0.5650000000
   H        -4.6750000000         2.7450000000         1.4280000000
  Si        -1.4170000000        -1.6600000000         0.3880000000
   C        -0.4980000000        -1.7360000000         2.0590000000
   C        -0.5310000000        -2.6670000000        -0.9320000000
   C        -3.2660000000        -2.3350000000         0.5570000000
   H        -0.1830000000        -2.7750000000         2.2270000000
   H         0.3600000000        -1.0890000000         2.1060000000
   H        -1.1820000000        -1.4730000000         2.8800000000
   H        -1.1720000000        -2.6710000000        -1.8420000000
   H         0.4260000000        -2.2250000000        -1.1880000000
   H        -0.3910000000        -3.7100000000        -0.6360000000
   H        -3.2300000000        -3.3730000000         0.8990000000
   H        -3.8690000000        -1.7650000000         1.2660000000
   H        -3.7800000000        -2.3150000000        -0.4080000000
   C         1.7620000000         0.0160000000         0.2900000000
   O         1.8130000000         0.0950000000         1.4640000000
   O         1.7300000000        -0.0430000000        -0.8790000000
