      36
final step 1000
   C        -3.0050000000         0.5190000000        -0.2670000000
   C        -4.6810000000         1.9300000000         0.5120000000
   H        -5.5040000000         1.4840000000         1.0850000000
   C        -4.8560000000         1.6830000000        -1.0050000000
   H        -5.9050000000         1.5420000000        -1.2880000000
   B        -1.6120000000        -0.0680000000        -0.6420000000
   N        -4.0430000000         0.4620000000        -1.1750000000
   N        -3.4030000000         1.2490000000         0.8180000000
   C        -3.9050000000        -0.2620000000        -2.4420000000
   H        -4.8450000000        -0.2160000000        -2.9990000000
   H        -3.1120000000         0.1610000000        -3.0850000000
   H        -3.6610000000        -1.3090000000        -2.2440000000
   C        -2.4440000000         1.6800000000         1.8400000000
   H        -2.4280000000         2.7710000000         1.9480000000
   H        -2.6580000000         1.2140000000         2.8110000000
   H        -1.4540000000         1.3330000000         1.5350000000
   N        -1.2520000000         0.6280000000        -1.8670000000
   N        -0.9420000000         1.2280000000        -2.8280000000
   H        -4.4250000000         2.5120000000        -1.5930000000
   H        -4.6020000000         2.9950000000         0.7720000000
  Si        -1.1330000000        -2.0810000000        -0.5060000000
   C        -1.8130000000        -3.1120000000         0.9430000000
   C         0.7050000000        -2.1130000000        -0.1020000000
   C        -1.1650000000        -3.1770000000        -2.0900000000
   H        -1.6380000000        -4.1710000000         0.6940000000
   H        -1.1780000000        -2.8780000000         1.7840000000
   H        -2.8720000000        -2.9820000000         1.2330000000
   H         0.8300000000        -1.8020000000         0.9470000000
   H         1.1720000000        -3.1090000000        -0.2520000000
   H         1.3060000000        -1.3940000000        -0.7070000000
   H        -0.6280000000        -4.0930000000        -1.8190000000
   H        -2.1050000000        -3.4270000000        -2.5870000000
   H        -0.5370000000        -2.6200000000        -2.7970000000
   C         1.8960000000         1.7630000000         1.8820000000
   O         1.0680000000         0.9720000000         2.1860000000
   O         2.7090000000         2.5520000000         1.5730000000
