      27
Step =        0, E =      0.00000000
   C        -2.6918767461         0.1343827570         0.0598572559
   C        -1.7234017094        -1.9173448576         0.5980788333
   H        -2.3330539640        -2.7296166047         0.1519917477
   C        -2.3899904756        -1.3434362455         1.8400687382
   H        -3.0079897218        -2.0771743849         2.3770028693
   B        -3.1137828001         1.3311343901        -0.7599424178
   N        -3.2114293249        -0.3004084566         1.2553589722
   N        -1.6809537202        -0.7495849569        -0.2622790678
   C        -4.2644015104         0.3293453761         2.0047297176
   H        -3.9339162148         1.2223372819         2.5645447592
   H        -5.0767211416         0.6239180403         1.3253320445
   H        -4.6650918331        -0.3995937735         2.7238374418
   C        -1.0704608672        -0.8595039252        -1.5621252174
   H        -0.8374022988         0.1360265936        -1.9550427245
   H        -0.1275934340        -1.4173399362        -1.4622613691
   H        -1.7112723068        -1.3884235374        -2.2927997513
   N        -3.7857727133         2.3501316412        -0.0200742478
   N        -4.2765711570         3.2326136432         0.5026770150
   H        -1.6421671404        -0.9305604663         2.5452216077
   H        -0.7123783936        -2.3047734598         0.7891945089
   C        -2.8468302335         1.6882558016        -2.3038441415
   H        -3.5987103593         2.4132930086        -2.6573616525
   H        -1.8607278345         2.1463422979        -2.4998975926
   H        -2.9387691305         0.8099797732        -2.9622673289
   C         2.6458860429         0.0000000000         0.0000000000
   O         3.1777944684         0.0538150323         1.0323454236
   O         2.1139776175        -0.0538150323        -1.0323454236
