      36
Step =        0, E =      0.00000000
   C        -2.2818770035        -0.0786005254        -0.8426474363
   C        -0.3904847080        -1.2247680834        -1.6149104069
   H         0.5805424863        -0.9090202231        -1.1949896086
   C        -0.8791049235        -0.2701663503        -2.7078444334
   H        -0.0738211184         0.3678279425        -3.1007653595
   B        -3.4393672068         0.3787744480         0.0208409223
   N        -1.8626609724         0.5273746657        -1.9958516860
   N        -1.4449944836        -1.1467717354        -0.6126396159
   C        -2.2355361522         1.8441560552        -2.4411648115
   H        -3.1320669070         1.8492209128        -3.0857772254
   H        -2.4474744683         2.4725895152        -1.5629874310
   H        -1.3995598474         2.2851102217        -3.0048557789
   C        -1.8423928686        -2.3443771918         0.0857605496
   H        -2.8237699630        -2.1841898331         0.5450080723
   H        -1.9252301705        -3.1962422136        -0.6142147875
   H        -1.1216300366        -2.6152567511         0.8743394578
   N        -4.4468351511         1.0051770395        -0.7671668071
   N        -5.2940881924         1.4553699655        -1.3793425070
   H        -1.3337623231        -0.8079703873        -3.5603465332
   H        -0.2807900617        -2.2570635510        -1.9793989071
   C        -3.6913221358         0.3420800799         1.6250189969
   C        -4.2678755874         1.7052044205         2.0590855296
   C        -2.3688205411         0.1471406494         2.3855552221
   C        -4.6955939501        -0.7436540777         2.0542757316
   H        -2.5365699552         0.2163487105         3.4751883403
   H        -1.9078082995        -0.8321367943         2.1919270915
   H        -1.6332587637         0.9194076608         2.1085182768
   H        -5.6600499523        -0.6194998103         1.5359098726
   H        -4.3335689214        -1.7602092695         1.8311496439
   H        -4.8917967215        -0.6996157066         3.1413477209
   H        -5.2292187958         1.9220418539         1.5657066517
   H        -4.4475622028         1.7240114272         3.1488714198
   H        -3.5758895191         2.5277069354         1.8163998356
   C         2.6458860429         0.0000000000         0.0000000000
   O         2.7890559572        -0.2239306692        -1.1317760977
   O         2.5027161287         0.2239306692         1.1317760977
