      36
final step 2000
   C        -2.7810000000         0.9150000000        -0.4540000000
   C        -4.4190000000         2.1940000000         0.6480000000
   H        -5.4000000000         2.1340000000         0.1080000000
   C        -3.3770000000         3.0740000000        -0.0740000000
   H        -3.7980000000         3.9990000000        -0.4780000000
   B        -1.6150000000        -0.1140000000        -0.6270000000
   N        -2.8150000000         2.1800000000        -1.0940000000
   N        -3.6540000000         0.9460000000         0.5970000000
   C        -2.8580000000         2.5940000000        -2.5360000000
   H        -2.1870000000         3.4500000000        -2.6630000000
   H        -2.5720000000         1.8060000000        -3.2370000000
   H        -3.8830000000         2.9000000000        -2.8100000000
   C        -3.8120000000        -0.0450000000         1.6320000000
   H        -3.9880000000        -0.9800000000         1.0920000000
   H        -2.8550000000        -0.1400000000         2.1600000000
   H        -4.6640000000         0.1760000000         2.2880000000
   N        -0.6240000000         0.8250000000        -1.0550000000
   N         0.0900000000         1.5740000000        -1.5400000000
   H        -2.5810000000         3.3200000000         0.6600000000
   H        -4.5650000000         2.5560000000         1.6730000000
   C        -1.5070000000        -1.6580000000        -1.1050000000
   C        -0.7940000000        -1.7530000000        -2.5030000000
   C        -2.8550000000        -2.3450000000        -1.5550000000
   C        -0.9040000000        -2.3410000000         0.2170000000
   H        -3.1230000000        -2.1620000000        -2.6080000000
   H        -2.6980000000        -3.4190000000        -1.3880000000
   H        -3.7360000000        -2.0840000000        -0.9350000000
   H         0.1570000000        -2.1000000000         0.3600000000
   H        -1.4940000000        -2.0050000000         1.0790000000
   H        -1.0000000000        -3.4350000000         0.2280000000
   H         0.2470000000        -1.4220000000        -2.5930000000
   H        -0.9570000000        -2.7270000000        -2.9670000000
   H        -1.4040000000        -1.1160000000        -3.1620000000
   C         2.2450000000        -0.5160000000         1.1920000000
   S         2.1200000000        -0.1610000000        -0.3400000000
   S         2.2550000000        -1.1590000000         2.6400000000
