      36
best bond-forming step 1252
   C        -2.6140000000         0.9530000000        -0.3200000000
   C        -4.4260000000         1.7870000000         0.6740000000
   H        -5.3030000000         1.1870000000         0.3540000000
   C        -4.0680000000         2.8060000000        -0.4390000000
   H        -4.9450000000         2.9000000000        -1.1030000000
   B        -1.5640000000        -0.1350000000        -0.6610000000
   N        -2.9470000000         2.1080000000        -1.0770000000
   N        -3.2870000000         0.8690000000         0.8340000000
   C        -2.7250000000         2.2970000000        -2.4950000000
   H        -2.4460000000         3.3420000000        -2.7090000000
   H        -1.9000000000         1.6420000000        -2.7880000000
   H        -3.6120000000         2.0310000000        -3.0830000000
   C        -2.8240000000         0.6050000000         2.2710000000
   H        -2.4370000000        -0.4200000000         2.3520000000
   H        -2.0570000000         1.3390000000         2.5720000000
   H        -3.6750000000         0.6940000000         2.9600000000
   N        -0.3840000000         0.4580000000        -1.0360000000
   N         0.6600000000         0.9560000000        -1.2810000000
   H        -3.8070000000         3.8340000000        -0.1140000000
   H        -4.6990000000         2.3500000000         1.5780000000
   C        -1.6670000000        -1.8000000000        -0.6970000000
   C        -0.3420000000        -2.4190000000        -1.4540000000
   C        -3.1450000000        -2.2450000000        -1.1070000000
   C        -1.5310000000        -2.3630000000         0.7080000000
   H        -3.2540000000        -3.3350000000        -0.9850000000
   H        -3.7650000000        -1.8190000000        -0.3050000000
   H        -3.5450000000        -1.9290000000        -2.0620000000
   H        -0.7070000000        -1.9080000000         1.2800000000
   H        -2.4620000000        -2.2750000000         1.2910000000
   H        -1.3440000000        -3.4510000000         0.6710000000
   H         0.5070000000        -1.9920000000        -0.8910000000
   H        -0.3100000000        -3.5180000000        -1.4090000000
   H        -0.2200000000        -2.1420000000        -2.5050000000
   C         2.1720000000        -0.3480000000         0.7720000000
   S         0.9230000000         0.4580000000         1.3650000000
   S         3.0010000000        -0.8890000000        -0.4650000000
