      36
best TS-like step 1
   C        -2.8560000000         0.8450000000        -0.2970000000
   C        -4.4500000000         2.3880000000         0.4400000000
   H        -5.5040000000         2.0720000000         0.3780000000
   C        -3.9090000000         2.8370000000        -0.9190000000
   H        -4.7080000000         3.0620000000        -1.6390000000
   B        -1.9150000000        -0.3370000000        -0.3550000000
   N        -3.1530000000         1.6750000000        -1.3430000000
   N        -3.5880000000         1.2700000000         0.7870000000
   C        -2.8700000000         1.4210000000        -2.7310000000
   H        -1.8900000000         1.8090000000        -3.0540000000
   H        -2.8760000000         0.3360000000        -2.9040000000
   H        -3.6490000000         1.8870000000        -3.3510000000
   C        -3.1710000000         1.1000000000         2.1570000000
   H        -2.3030000000         0.4360000000         2.1890000000
   H        -2.8790000000         2.0680000000         2.6000000000
   H        -3.9710000000         0.6660000000         2.7760000000
   N        -0.8750000000        -0.1130000000        -1.3010000000
   N         0.0010000000         0.0650000000        -2.0050000000
   H        -3.2650000000         3.7300000000        -0.8370000000
   H        -4.3800000000         3.1780000000         1.2010000000
   C        -1.9190000000        -1.7760000000         0.3900000000
   C        -1.5820000000        -2.8640000000        -0.6490000000
   C        -3.3130000000        -2.1000000000         0.9480000000
   C        -0.8800000000        -1.8800000000         1.5190000000
   H        -3.3340000000        -3.1250000000         1.3690000000
   H        -3.6220000000        -1.4210000000         1.7490000000
   H        -4.0830000000        -2.0550000000         0.1580000000
   H         0.1320000000        -1.6670000000         1.1420000000
   H        -1.0820000000        -1.1700000000         2.3370000000
   H        -0.8680000000        -2.8900000000         1.9620000000
   H        -0.5900000000        -2.7120000000        -1.0960000000
   H        -1.5870000000        -3.8650000000        -0.1820000000
   H        -2.3190000000        -2.8760000000        -1.4680000000
   C         2.6420000000        -0.0010000000         0.0010000000
   S         3.3560000000         0.0720000000         1.3880000000
   S         1.9260000000        -0.0730000000        -1.3850000000
