      24
final step 1000
   C        -6.4330000000        -0.6510000000        -4.0510000000
   C        -5.7150000000         0.1100000000        -6.2280000000
   H        -1.4770000000        15.5460000000       -11.0700000000
   C        -4.8570000000         0.7470000000        -5.2330000000
   H        -3.7520000000         0.5860000000        -5.4660000000
   B        -2.1040000000        10.7990000000        15.2780000000
   N        -5.2530000000        -0.0450000000        -3.9720000000
   N        -6.7920000000        -0.6270000000        -5.6210000000
   C        -4.2180000000        -0.4330000000        -3.0060000000
   H        -4.1830000000        -1.4630000000        -2.6900000000
   H        -3.3020000000        -0.1520000000        -3.5370000000
   H        -4.0750000000         0.1100000000        -2.0330000000
   C        -7.9720000000        -1.3690000000        -5.9510000000
   H        -8.8100000000        -1.3690000000        -5.3000000000
   H        -1.0560000000        14.7720000000       -11.6860000000
   H        -7.8330000000        -2.0490000000        -6.7630000000
   N         5.8200000000        -6.3050000000         0.9530000000
   N         6.6500000000        -5.7470000000         1.2910000000
   H        -4.9780000000         1.8200000000        -4.9140000000
   H        -5.6060000000         0.4380000000        -7.2620000000
   H         8.1500000000       -11.4420000000        -1.4210000000
   C         8.2560000000        -6.5930000000         2.5960000000
   O         8.8430000000        -5.5110000000         2.7910000000
   O        -3.8990000000        10.6970000000        15.0720000000
