      24
best product-like step 133
   C        -2.2380000000        -0.4120000000        -0.1820000000
   C        -3.5070000000         1.5210000000        -0.6680000000
   H        -4.6080000000         1.3600000000        -0.5700000000
   C        -2.7800000000         0.9270000000        -1.9110000000
   H        -3.4320000000         0.7740000000        -2.7810000000
   B         0.4200000000         0.6070000000         1.5410000000
   N        -2.1170000000        -0.4050000000        -1.5460000000
   N        -2.8160000000         0.6820000000         0.3500000000
   C        -3.1120000000        -1.7030000000        -2.9350000000
   H        -2.7970000000        -2.7110000000        -2.8000000000
   H        -4.1470000000        -1.4270000000        -2.7460000000
   H        -2.8760000000        -1.1720000000        -3.8500000000
   C        -3.2270000000         0.8590000000         1.8270000000
   H        -2.6100000000         0.1300000000         2.3390000000
   H        -2.9650000000         1.8720000000         2.1680000000
   H        -4.3040000000         0.6130000000         1.9030000000
   N         1.1170000000        -3.1560000000         0.5810000000
   N         2.2810000000        -2.8340000000         0.1670000000
   H        -1.9580000000         1.6370000000        -2.1680000000
   H        -3.2930000000         2.5900000000        -0.4750000000
   H         0.7690000000         2.2390000000         4.0150000000
   C         0.9540000000        -0.8010000000         1.3830000000
   O         0.0080000000        -0.9430000000         0.9150000000
   O        -0.6260000000         1.1230000000         2.0330000000
