      24
best bond-forming step 45
   C        -2.3250000000        -0.2440000000         0.3310000000
   C        -3.5290000000         1.4910000000        -0.6380000000
   H        -4.5300000000         1.1500000000        -0.9790000000
   C        -2.3930000000         0.9620000000        -1.5640000000
   H        -2.6070000000         1.0360000000        -2.6410000000
   B        -0.1600000000        -0.3920000000         0.7820000000
   N        -2.2940000000        -0.4110000000        -1.0590000000
   N        -3.1700000000         0.8550000000         0.6580000000
   C        -1.2610000000        -1.3230000000        -1.4960000000
   H        -0.3300000000        -1.3870000000        -1.0690000000
   H        -1.5800000000        -2.3630000000        -1.4440000000
   H        -0.9850000000        -1.0590000000        -2.5220000000
   C        -4.0550000000         1.0900000000         1.8260000000
   H        -3.5570000000         0.8720000000         2.7770000000
   H        -4.2920000000         2.1680000000         1.8110000000
   H        -5.0010000000         0.5260000000         1.7410000000
   N        -0.2080000000        -2.2070000000         0.6820000000
   N        -1.0260000000        -3.0810000000         0.8660000000
   H        -1.4250000000         1.4640000000        -1.3380000000
   H        -3.5250000000         2.5920000000        -0.5810000000
   H        -0.4260000000        -0.6620000000         1.8770000000
   C         1.3270000000        -0.6520000000         0.7560000000
   O         2.6340000000        -0.0320000000         0.6520000000
   O         0.1540000000        -0.4760000000        -0.0300000000
