      27
best bond-forming step 61
   C        -2.3160000000         0.0340000000         0.0920000000
   C        -1.6990000000        -2.1610000000         0.9290000000
   H        -2.4170000000        -2.9540000000         0.6480000000
   C        -2.3150000000        -1.2200000000         2.0630000000
   H        -2.9490000000        -1.7910000000         2.7670000000
   B        -1.0620000000         1.5130000000        -1.0460000000
   N        -3.1060000000        -0.1690000000         1.2810000000
   N        -1.5990000000        -1.1100000000        -0.1530000000
   C        -4.1500000000         0.7090000000         2.0550000000
   H        -3.6640000000         1.5160000000         2.6310000000
   H        -4.8670000000         1.1230000000         1.3350000000
   H        -4.7050000000         0.0670000000         2.7660000000
   C        -1.1930000000        -1.2580000000        -1.6080000000
   H        -1.1470000000        -0.3540000000        -2.3000000000
   H        -0.3220000000        -1.8930000000        -1.7860000000
   H        -2.0670000000        -1.6360000000        -2.1880000000
   N        -1.5270000000         2.3740000000         0.2100000000
   N        -2.4870000000         1.9800000000        -0.1760000000
   H        -1.5100000000        -0.7320000000         2.6350000000
   H        -0.7350000000        -2.6260000000         1.1940000000
   C        -2.3270000000         1.4180000000        -2.4510000000
   H        -2.9570000000         1.5270000000        -1.5830000000
   H        -2.6260000000         2.1750000000        -3.2260000000
   H        -2.7570000000         0.4550000000        -2.8070000000
   C         0.0030000000         0.9550000000         0.5600000000
   O         1.8100000000         0.1920000000         0.3430000000
   O        -0.3520000000         0.7040000000        -0.7190000000
