      27
best product-like step 85
   C        -2.3020000000        -0.2260000000         0.2270000000
   C        -1.7390000000        -2.2890000000         1.1240000000
   H        -2.3670000000        -3.1720000000         0.9150000000
   C        -2.2930000000        -1.2610000000         2.1190000000
   H        -3.0090000000        -1.6490000000         2.8620000000
   B        -1.6240000000         2.6940000000        -1.7140000000
   N        -2.9600000000        -0.1850000000         1.3060000000
   N        -1.6450000000        -1.3500000000        -0.1960000000
   C        -3.9850000000         0.8160000000         1.9740000000
   H        -3.4310000000         1.5780000000         2.5460000000
   H        -4.5840000000         1.3100000000         1.1950000000
   H        -4.6010000000         0.1490000000         2.5990000000
   C        -1.3500000000        -1.8380000000        -1.6800000000
   H        -1.1490000000        -0.8380000000        -2.1470000000
   H        -0.3340000000        -2.2870000000        -1.6460000000
   H        -2.0830000000        -2.6180000000        -1.8880000000
   N        -0.7820000000         3.0870000000         0.2770000000
   N        -1.5410000000         1.3400000000        -0.2440000000
   H        -1.4520000000        -0.7510000000         2.6160000000
   H        -0.7170000000        -2.5770000000         1.4150000000
   C        -2.0100000000         1.4100000000        -2.5890000000
   H        -3.0590000000         1.1350000000        -2.2020000000
   H        -2.5940000000         2.0060000000        -3.3830000000
   H        -1.4790000000         0.4560000000        -2.9430000000
   C        -0.1100000000         0.8540000000         1.1320000000
   O         0.6470000000         0.4900000000         0.0410000000
   O        -0.6500000000         0.6640000000        -0.4390000000
