      27
final step 1000
   C        -5.0780000000        -7.3280000000         3.6530000000
   C        -3.2670000000        -6.6850000000         2.3100000000
   H        -3.0530000000        -6.2800000000         1.3130000000
   C        -3.6270000000        -8.1990000000         2.0370000000
   H        -4.1960000000        -8.2160000000         1.1020000000
   B        -8.7970000000        -7.4850000000       -16.4460000000
   N        -4.5380000000        -8.5090000000         3.2230000000
   N        -4.4480000000        -6.3000000000         3.0120000000
   C        -4.7840000000        -9.6600000000         3.8290000000
   H        -4.3200000000       -10.4800000000         3.3520000000
   H       -12.9470000000        12.2760000000        -4.3350000000
   H        -5.1280000000        -9.7910000000         4.8550000000
   C        -4.6760000000        -4.9830000000         3.6150000000
   H        -5.7480000000        -4.7400000000         3.2840000000
   H        -4.6330000000        -5.0390000000         4.7070000000
   H        -4.0110000000        -4.3140000000         3.0850000000
   N        10.5840000000        10.6100000000         9.0870000000
   N       -12.1330000000        12.8470000000        -4.1090000000
   H        -2.7740000000        -8.8790000000         1.9090000000
   H        -2.3710000000        -6.7700000000         2.9380000000
   C         5.0910000000        28.2850000000       -12.5530000000
   H        -8.2200000000        -9.4900000000       -17.4730000000
   H         6.1260000000        28.2990000000       -13.2170000000
   H         5.2160000000        27.6660000000       -11.7460000000
   C        11.5690000000         9.1280000000        10.7500000000
   O        10.5800000000         9.0700000000        11.2240000000
   O        -8.3900000000        -8.4960000000       -17.7220000000
