      27
best TS-like step 71
   C        -2.2830000000        -0.0670000000         0.1430000000
   C        -1.7060000000        -2.2410000000         1.0210000000
   H        -2.3870000000        -3.0700000000         0.7800000000
   C        -2.3040000000        -1.2320000000         2.0900000000
   H        -2.9570000000        -1.7220000000         2.8130000000
   B        -1.3120000000         1.9960000000        -1.3330000000
   N        -3.0460000000        -0.1690000000         1.2700000000
   N        -1.6080000000        -1.1940000000        -0.1700000000
   C        -4.1020000000         0.7660000000         2.0420000000
   H        -3.6100000000         1.5600000000         2.6100000000
   H        -4.7820000000         1.2050000000         1.3080000000
   H        -4.7000000000         0.1350000000         2.7030000000
   C        -1.2430000000        -1.4750000000        -1.6660000000
   H        -1.2290000000        -0.6170000000        -2.2540000000
   H        -0.3540000000        -2.0950000000        -1.8070000000
   H        -2.1110000000        -2.0530000000        -2.0710000000
   N        -1.1800000000         2.6340000000         0.2730000000
   N        -2.0510000000         1.6850000000        -0.2580000000
   H        -1.4680000000        -0.7510000000         2.6260000000
   H        -0.7360000000        -2.6500000000         1.3300000000
   C        -2.1490000000         1.3970000000        -2.4900000000
   H        -2.9840000000         1.3730000000        -1.7510000000
   H        -2.7220000000         2.1380000000        -3.0540000000
   H        -2.3680000000         0.3460000000        -2.7030000000
   C        -0.1440000000         0.9970000000         0.8530000000
   O         1.3480000000         0.2960000000         0.1820000000
   O        -0.5220000000         0.6940000000        -0.6150000000
