      27
best TS-like step 863
   C        -2.0430000000        -0.9470000000         0.3430000000
   C        -3.4730000000        -2.5840000000         1.3520000000
   H        -3.7660000000        -3.3550000000         0.5960000000
   C        -4.1750000000        -1.3010000000         1.0140000000
   H        -5.0560000000        -1.4680000000         0.3610000000
   B        -0.8930000000        -0.1720000000        -0.2110000000
   N        -3.3470000000        -0.4200000000         0.3880000000
   N        -2.0680000000        -2.1210000000         1.0720000000
   C        -3.8120000000         0.9010000000         0.2400000000
   H        -3.6290000000         1.4930000000         1.1540000000
   H        -3.3850000000         1.3520000000        -0.6510000000
   H        -4.9080000000         0.9530000000         0.0690000000
   C        -1.1840000000        -3.2210000000         1.0730000000
   H        -1.6600000000        -4.1110000000         1.5170000000
   H        -0.8540000000        -3.5440000000         0.0710000000
   H        -0.2670000000        -3.1210000000         1.6780000000
   N         0.6190000000         3.7650000000         0.3640000000
   N         1.6770000000         3.4650000000         0.0910000000
   H        -4.5680000000        -0.7940000000         1.9340000000
   H        -3.4530000000        -3.0250000000         2.3630000000
   C         0.5420000000        -0.7830000000         0.2440000000
   H         0.7410000000        -1.7950000000         0.6090000000
   H         1.1230000000        -0.6750000000        -0.6850000000
   H         1.2790000000        -0.2350000000         0.8410000000
   C        -1.4970000000         2.1240000000        -1.4290000000
   O        -1.6900000000         1.9920000000        -2.6060000000
   O        -0.9070000000         2.6810000000        -0.5080000000
