      27
best product-like step 902
   C        -1.9540000000        -0.9710000000         0.4360000000
   C        -3.6160000000        -2.5640000000         1.0870000000
   H        -3.8410000000        -3.1900000000         0.2090000000
   C        -4.3350000000        -1.2340000000         0.9730000000
   H        -5.2840000000        -1.1610000000         0.4290000000
   B        -0.6020000000        -0.0860000000        -0.0280000000
   N        -3.2190000000        -0.4310000000         0.1980000000
   N        -2.1300000000        -2.0930000000         1.2780000000
   C        -3.5820000000         0.9760000000         0.2150000000
   H        -3.5270000000         1.3610000000         1.2580000000
   H        -3.1220000000         1.6840000000        -0.4640000000
   H        -4.6730000000         0.9930000000         0.0510000000
   C        -1.0100000000        -3.1900000000         1.3070000000
   H        -1.4890000000        -4.1660000000         1.4750000000
   H        -0.4540000000        -3.1130000000         0.3680000000
   H        -0.2980000000        -2.9850000000         2.1180000000
   N         0.8410000000         3.3370000000         0.3420000000
   N         1.6070000000         2.9690000000        -0.3520000000
   H        -4.5030000000        -0.8190000000         1.9650000000
   H        -3.9530000000        -3.0970000000         1.9980000000
   C         0.6640000000        -0.7210000000         0.4930000000
   H         0.1570000000        -1.4460000000         1.1910000000
   H         1.4480000000        -1.1020000000        -0.1930000000
   H         1.0760000000        -0.1250000000         1.3100000000
   C        -1.4360000000         2.3890000000        -1.5330000000
   O        -1.8780000000         1.9880000000        -2.6170000000
   O        -1.3810000000         2.9760000000        -0.4510000000
