      27
best bond-forming step 139
   C        -2.1700000000        -0.1400000000         0.0670000000
   C        -1.7900000000        -2.1230000000         1.1200000000
   H        -2.6340000000        -2.8030000000         0.8920000000
   C        -2.2310000000        -1.0940000000         2.1420000000
   H        -3.0940000000        -1.4410000000         2.7090000000
   B        -1.9450000000         0.9730000000        -0.8790000000
   N        -2.6210000000        -0.0250000000         1.2980000000
   N        -1.5050000000        -1.3390000000        -0.0660000000
   C        -3.5250000000         0.8750000000         1.8460000000
   H        -2.9990000000         1.6050000000         2.4770000000
   H        -4.1230000000         1.3920000000         1.1000000000
   H        -4.1680000000         0.2730000000         2.4910000000
   C        -1.3750000000        -2.1470000000        -1.2860000000
   H        -1.0630000000        -1.4990000000        -2.1130000000
   H        -0.6060000000        -2.9000000000        -1.0960000000
   H        -2.3160000000        -2.6350000000        -1.5990000000
   N        -1.7150000000         2.6110000000        -0.3050000000
   N        -2.7090000000         2.9710000000         0.0490000000
   H        -1.4530000000        -0.7550000000         2.8540000000
   H        -0.9290000000        -2.7210000000         1.4270000000
   C        -2.0250000000         1.1220000000        -2.4450000000
   H        -2.7820000000         1.9100000000        -2.6020000000
   H        -1.0570000000         1.5420000000        -2.7300000000
   H        -2.2650000000         0.2650000000        -3.0710000000
   C         0.3850000000         0.6520000000        -0.1380000000
   O         1.2200000000         0.1460000000         0.5080000000
   O        -0.4680000000         1.2800000000        -0.6260000000
