      27
final step 1000
   C        -1.9020000000        -0.8640000000         0.6520000000
   C        -3.5100000000        -2.6640000000         0.6480000000
   H        -3.4900000000        -3.0130000000        -0.4030000000
   C        -4.2380000000        -1.2740000000         0.7480000000
   H        -5.1030000000        -1.1390000000         0.0850000000
   B        -0.7660000000         0.1500000000         0.9760000000
   N        -3.2080000000        -0.3720000000         0.3630000000
   N        -2.1940000000        -2.1640000000         1.1330000000
   C        -3.4050000000         1.0150000000         0.1950000000
   H        -3.5620000000         1.6870000000         1.0530000000
   H        -2.3610000000         1.1850000000        -0.1600000000
   H        -3.9850000000         1.3460000000        -0.6900000000
   C        -1.2410000000        -2.9720000000         1.8170000000
   H        -1.4220000000        -4.0570000000         1.7980000000
   H        -0.2460000000        -2.6920000000         1.4310000000
   H        -1.1760000000        -2.7000000000         2.8960000000
   N         1.8710000000         2.3090000000        -0.1340000000
   N         1.2380000000         2.0040000000        -1.0230000000
   H        -4.5840000000        -1.0470000000         1.7880000000
   H        -4.1850000000        -3.3100000000         1.2090000000
   C         0.9150000000        -0.1740000000         1.0880000000
   H         0.8480000000        -0.2800000000         2.1580000000
   H         1.3450000000        -0.9110000000         0.4130000000
   H         1.5520000000         0.7130000000         1.2290000000
   C        -1.9070000000         2.6880000000        -1.5820000000
   O        -1.7730000000         2.2410000000        -2.7060000000
   O        -2.0250000000         3.3300000000        -0.5630000000
