      20
Step =        0, E =      0.00000000
  Ca        -3.5180128302        -0.5931331244        -1.0836212293
   O        -5.0435255441        -1.3519851278        -2.2124803071
   H        -5.7926821462        -1.7253510365        -2.6587531794
   C        -2.8387427497         0.6138490360         0.8687783298
   H        -3.1615999543         1.1671247792         1.7384469970
   C        -1.5246153766         0.0084794344         1.0569736193
   H        -1.4793845043        -0.4937853947         2.0180226054
   H        -0.6719074778         0.6847988825         0.9489871448
   O        -1.3462545592        -1.0197272384        -0.0130139854
   H        -0.4115595503        -1.1304958854        -0.1871933522
   O        -2.6833991015         1.5531100254        -0.3077645569
   H        -3.2789487212         2.2871156497        -0.1683820860
   C         2.5856573543        -0.3089560024        -0.5783169217
   H         1.9122441386         0.0818768752        -1.3242132186
   C         2.7733879902         0.3320419633         0.5653240171
   H         3.4461510189        -0.0351536749         1.3229370281
   O         3.2982615657        -1.4330312087        -0.9061629905
   H         2.8145925200        -1.9122470583        -1.5755341070
   O         2.1733459085         1.5508841644         0.7785864275
   H         2.1634478474         1.7245849415         1.7173797650
