      27
best product-like step 215
   C        -2.3380000000        -0.2620000000         0.0080000000
   C        -1.7770000000        -2.2730000000         1.3160000000
   H        -2.6150000000        -2.9850000000         1.3990000000
   C        -1.9980000000        -1.0950000000         2.2650000000
   H        -2.8320000000        -1.2940000000         2.9610000000
   B        -2.5780000000         0.8230000000        -1.1180000000
   N        -2.3470000000         0.0560000000         1.3540000000
   N        -1.6660000000        -1.6600000000        -0.0420000000
   C        -3.1140000000         1.2310000000         1.8040000000
   H        -2.4990000000         1.9960000000         2.2910000000
   H        -3.5970000000         1.7020000000         0.9410000000
   H        -3.9310000000         0.9250000000         2.4790000000
   C        -1.6390000000        -2.7940000000        -1.0080000000
   H        -1.5290000000        -2.4450000000        -2.0400000000
   H        -0.7340000000        -3.3730000000        -0.7720000000
   H        -2.5080000000        -3.4680000000        -0.9400000000
   N        -2.3630000000         2.5160000000        -0.3790000000
   N        -1.8230000000         3.5020000000        -0.1590000000
   H        -1.1010000000        -0.8470000000         2.8390000000
   H        -0.8450000000        -2.8030000000         1.5580000000
   C        -1.9110000000         0.7020000000        -2.6160000000
   H        -2.0110000000         1.5800000000        -3.2600000000
   H        -0.8300000000         0.4890000000        -2.5550000000
   H        -2.4100000000        -0.1170000000        -3.1690000000
   C         0.2970000000         0.9740000000        -0.1320000000
   O         0.5150000000         0.0380000000         0.5700000000
   O         0.0400000000         1.9970000000        -0.6600000000
