      27
best TS-like step 257
   C        -2.2180000000        -0.4410000000        -0.0320000000
   C        -1.8160000000        -2.1990000000         1.4020000000
   H        -2.5340000000        -2.9690000000         1.7250000000
   C        -1.9120000000        -0.9430000000         2.2490000000
   H        -2.6180000000        -1.0230000000         3.0890000000
   B        -2.4090000000         0.4760000000        -1.0730000000
   N        -2.4020000000        -0.0580000000         1.2650000000
   N        -2.1570000000        -1.7820000000         0.0500000000
   C        -2.8220000000         1.1400000000         1.8760000000
   H        -2.0020000000         1.8370000000         2.0950000000
   H        -3.5760000000         1.6650000000         1.2810000000
   H        -3.2880000000         0.8740000000         2.8340000000
   C        -1.9140000000        -2.8020000000        -0.8670000000
   H        -1.8840000000        -2.4770000000        -1.9120000000
   H        -0.9600000000        -3.3010000000        -0.6360000000
   H        -2.7120000000        -3.5530000000        -0.7790000000
   N        -2.4340000000         2.6450000000        -0.6590000000
   N        -1.4430000000         3.1670000000        -0.4090000000
   H        -0.9420000000        -0.6110000000         2.6650000000
   H        -0.8070000000        -2.6400000000         1.4120000000
   C        -2.0540000000         0.4580000000        -2.5430000000
   H        -1.9900000000         1.4500000000        -2.9780000000
   H        -1.0450000000         0.0220000000        -2.6130000000
   H        -2.7380000000        -0.1470000000        -3.1600000000
   C         0.3050000000         1.3300000000         0.0090000000
   O        -0.0370000000         0.2890000000         0.4010000000
   O         0.6260000000         2.3380000000        -0.4830000000
