      27
best bond-forming step 295
   C        -2.5320000000        -0.5270000000         0.1090000000
   C        -1.8000000000        -2.3400000000         1.5590000000
   H        -2.3630000000        -3.1300000000         2.0890000000
   C        -1.8060000000        -0.9890000000         2.3260000000
   H        -2.2790000000        -1.1120000000         3.3060000000
   B        -2.1340000000         0.3040000000        -1.1310000000
   N        -2.5810000000        -0.0570000000         1.4960000000
   N        -2.4610000000        -1.9970000000         0.2460000000
   C        -2.6740000000         1.3510000000         1.9530000000
   H        -1.7340000000         1.9190000000         1.8150000000
   H        -3.4820000000         1.8640000000         1.4250000000
   H        -2.8850000000         1.3390000000         3.0320000000
   C        -2.1490000000        -2.8730000000        -0.9970000000
   H        -2.4110000000        -2.2750000000        -1.8830000000
   H        -1.0900000000        -3.1670000000        -1.0740000000
   H        -2.7960000000        -3.7660000000        -1.0450000000
   N        -2.4570000000         2.6800000000        -0.9520000000
   N        -1.4500000000         3.0560000000        -0.6120000000
   H        -0.7620000000        -0.6580000000         2.5170000000
   H        -0.7650000000        -2.6960000000         1.4180000000
   C        -2.1120000000         0.2790000000        -2.7560000000
   H        -1.9950000000         1.2750000000        -3.1970000000
   H        -1.3330000000        -0.3530000000        -3.2100000000
   H        -3.0780000000        -0.1350000000        -3.1050000000
   C         0.4270000000         1.5970000000         0.0340000000
   O        -0.2350000000         0.6620000000         0.2710000000
   O         1.2430000000         2.3690000000        -0.2960000000
