      27
final step 1000
   C        -2.7670000000        -0.8710000000         0.9490000000
   C        -3.7460000000        -2.1630000000         2.7140000000
   H        -4.5210000000        -1.6120000000         3.2770000000
   C        -2.3400000000        -1.6880000000         3.0890000000
   H        -2.0890000000        -1.4160000000         4.1290000000
   B        -1.8830000000        -0.5350000000        -0.1720000000
   N        -2.2350000000        -0.4670000000         2.2700000000
   N        -3.8450000000        -1.8510000000         1.1730000000
   C        -0.9410000000         0.0580000000         2.4580000000
   H        -0.2050000000        -0.7270000000         2.1660000000
   H        -0.7580000000         0.9290000000         1.8260000000
   H        -0.7390000000         0.3270000000         3.5060000000
   C        -3.9450000000        -3.1600000000         0.3460000000
   H        -4.4520000000        -2.9300000000        -0.5950000000
   H        -2.9950000000        -3.6810000000         0.1710000000
   H        -4.5550000000        -3.8260000000         0.9690000000
   N        -0.4780000000         4.7860000000        -3.1500000000
   N        -0.2990000000         3.8230000000        -3.6450000000
   H        -1.5980000000        -2.4440000000         2.7390000000
   H        -3.8150000000        -3.2530000000         2.8490000000
   C        -1.0780000000        -0.5930000000        -1.5350000000
   H        -0.0900000000        -0.1580000000        -1.7420000000
   H        -0.6980000000        -1.6300000000        -1.6110000000
   H        -1.7330000000        -0.2980000000        -2.3540000000
   C         0.2420000000         2.0070000000        -1.0610000000
   O         1.1250000000         2.5420000000        -1.5940000000
   O        -0.5910000000         1.5720000000        -0.3740000000
