      36
Step =        0, E =     -7.61368286
   C        -4.2155605372        -0.4300166803         0.1800895355
   C        -4.7127154617        -2.3525666859         1.4232501561
   H        -3.8070009969        -2.8288512556         1.8346576837
   C        -4.8925349714        -2.6599156908        -0.0703986885
   H        -4.3618883378        -3.5673123207        -0.3831700323
   B        -3.6657906585         1.0251202737        -0.0335823702
   N        -4.3122207620        -1.4713718054        -0.7025615524
   N        -4.5819712122        -0.8971832410         1.4085077833
   C        -4.2364689012        -1.4302505574        -2.1475528814
   H        -3.6605487692        -2.2943614087        -2.5038649326
   H        -5.2428871186        -1.4642747147        -2.5998004688
   H        -3.7390827772        -0.5184874840        -2.4825791501
   C        -4.6361233608        -0.1326673025         2.6358677430
   H        -3.8131166233        -0.3900757963         3.3164475466
   H        -4.5706192175         0.9321539475         2.4058583674
   H        -5.5997341452        -0.3061864260         3.1337525496
   N        -2.5628239473         1.1927785065         0.8135210290
   N        -1.6881463728         1.3288189464         1.5626414128
   H        -5.9583359311        -2.7717036866        -0.3406455365
   H        -5.5762719467        -2.6626938195         2.0238755919
   C        -4.4331337361         2.2960027791        -0.6609378494
   C        -5.5170474682         2.6941721259         0.3706944313
   C        -5.1179395256         1.9038840805        -1.9803099548
   C        -3.5106428362         3.5070450001        -0.8798492013
   H        -5.8014057906         2.6985462196        -2.3139915491
   H        -4.3806507773         1.7385498968        -2.7770799728
   H        -5.7104076105         0.9868197559        -1.8662570034
   H        -3.0204676822         3.8136152888         0.0537117591
   H        -2.7275842461         3.3037407039        -1.6218578816
   H        -4.0993218336         4.3661637953        -1.2376592439
   H        -5.0597427030         3.0165139320         1.3166956515
   H        -6.1278541637         3.5316343932        -0.0008994825
   H        -6.1919562989         1.8563220600         0.5910811995
   C         0.1326881034        -1.3509785760         0.3350983302
   O        -0.2730433209        -1.6332902658         1.3966482854
   O         0.5584645758        -1.0911634761        -0.7322773065
