      32
best product-like step 104
   C        -2.5120000000         0.5620000000        -0.4800000000
   C        -4.2430000000         1.4210000000         0.8580000000
   H        -5.1420000000         0.7830000000         0.8780000000
   C        -4.0980000000         2.2450000000        -0.4300000000
   H        -5.0550000000         2.5050000000        -0.8960000000
   B        -1.3680000000        -0.3120000000        -0.9860000000
   N        -3.3090000000         1.3510000000        -1.2620000000
   N        -3.0210000000         0.6200000000         0.8030000000
   C        -3.1850000000         1.4540000000        -2.6860000000
   H        -2.4660000000         2.2220000000        -3.0190000000
   H        -2.8890000000         0.4830000000        -3.1080000000
   H        -4.1700000000         1.7040000000        -3.0960000000
   C        -2.3240000000         0.1950000000         1.9910000000
   H        -1.2590000000         0.0620000000         1.7650000000
   H        -2.4080000000         0.9710000000         2.7660000000
   H        -2.6990000000        -0.7490000000         2.4170000000
   N        -0.6930000000         0.2470000000        -2.1390000000
   N        -0.1710000000         0.7920000000        -2.9960000000
   H        -3.5380000000         3.1770000000        -0.2320000000
   H        -4.2620000000         2.0790000000         1.7380000000
   P        -1.1530000000        -2.2480000000        -0.4350000000
   C        -0.2500000000        -2.2290000000         1.2430000000
   C        -2.9530000000        -2.4520000000         0.1090000000
   H        -3.2970000000        -1.6980000000         0.8170000000
   H        -3.5460000000        -2.3380000000        -0.8030000000
   H        -3.1190000000        -3.4480000000         0.5480000000
   H         0.2010000000        -3.2190000000         1.4170000000
   H         0.5420000000        -1.4680000000         1.2780000000
   H        -0.9240000000        -2.0630000000         2.0830000000
   C         2.0680000000        -0.0870000000         0.3710000000
   O         2.5910000000         0.0480000000         1.3990000000
   O         1.5820000000        -0.2120000000        -0.6690000000
