      32
best bond-forming step 101
   C        -2.5190000000         0.5610000000        -0.4750000000
   C        -4.2400000000         1.4270000000         0.8640000000
   H        -5.1390000000         0.7980000000         0.8870000000
   C        -4.0900000000         2.2470000000        -0.4290000000
   H        -5.0470000000         2.5080000000        -0.8870000000
   B        -1.3700000000        -0.3100000000        -0.9730000000
   N        -3.3030000000         1.3560000000        -1.2630000000
   N        -3.0230000000         0.6190000000         0.8120000000
   C        -3.1830000000         1.4590000000        -2.6930000000
   H        -2.4650000000         2.2180000000        -3.0240000000
   H        -2.8910000000         0.4900000000        -3.1080000000
   H        -4.1630000000         1.7160000000        -3.0960000000
   C        -2.3270000000         0.1830000000         1.9930000000
   H        -1.2700000000         0.0510000000         1.7550000000
   H        -2.4020000000         0.9460000000         2.7750000000
   H        -2.7060000000        -0.7580000000         2.4120000000
   N        -0.6940000000         0.2390000000        -2.1290000000
   N        -0.1700000000         0.7810000000        -2.9820000000
   H        -3.5340000000         3.1750000000        -0.2320000000
   H        -4.2580000000         2.0910000000         1.7340000000
   P        -1.1590000000        -2.2440000000        -0.4390000000
   C        -0.2590000000        -2.2300000000         1.2440000000
   C        -2.9670000000        -2.4540000000         0.1140000000
   H        -3.2930000000        -1.6990000000         0.8230000000
   H        -3.5600000000        -2.3380000000        -0.7980000000
   H        -3.1180000000        -3.4500000000         0.5510000000
   H         0.1820000000        -3.2180000000         1.4290000000
   H         0.5410000000        -1.4830000000         1.2740000000
   H        -0.9280000000        -2.0470000000         2.0770000000
   C         2.0790000000        -0.0850000000         0.3580000000
   O         2.6040000000         0.0480000000         1.3840000000
   O         1.5880000000        -0.2070000000        -0.6830000000
