      32
final step 1000
   C        -2.6770000000         0.1860000000        -0.7010000000
   C        -4.5260000000         1.4620000000        -0.1250000000
   H        -5.1510000000         0.7960000000         0.5050000000
   C        -4.6090000000         1.0570000000        -1.6100000000
   H        -5.6090000000         0.6700000000        -1.8480000000
   B        -1.2910000000        -0.5280000000        -0.7300000000
   N        -3.5720000000         0.0380000000        -1.7260000000
   N        -3.1120000000         1.2200000000         0.1330000000
   C        -3.2540000000        -0.5980000000        -3.0060000000
   H        -2.6370000000         0.0560000000        -3.6440000000
   H        -2.7070000000        -1.5200000000        -2.8440000000
   H        -4.1930000000        -0.8410000000        -3.5090000000
   C        -2.6510000000         1.2730000000         1.5160000000
   H        -1.6310000000         0.9080000000         1.5730000000
   H        -2.6860000000         2.3040000000         1.8900000000
   H        -3.3050000000         0.6560000000         2.1660000000
   N        -0.4230000000         0.2610000000        -1.4770000000
   N         0.3130000000         0.9870000000        -2.0370000000
   H        -4.3860000000         1.8950000000        -2.2870000000
   H        -4.8150000000         2.5070000000         0.0650000000
   P        -0.4900000000        -2.2260000000        -0.0810000000
   C        -1.9040000000        -3.2390000000        -0.8510000000
   C         0.9360000000        -2.3760000000        -1.3400000000
   H         0.6150000000        -2.3110000000        -2.3890000000
   H         1.6420000000        -1.5450000000        -1.2150000000
   H         1.5120000000        -3.3110000000        -1.2450000000
   H        -1.8320000000        -4.3290000000        -0.7310000000
   H        -2.7900000000        -2.8630000000        -0.3260000000
   H        -2.0140000000        -2.9940000000        -1.9060000000
   C         1.1210000000         1.2410000000         2.2150000000
   O         1.6520000000         1.6540000000         3.1590000000
   O         0.6300000000         0.8670000000         1.2270000000
