      36
Step =        0, E =     -7.60171419
   C        -4.2538819879        -0.7773550616         0.1563009038
   C        -5.5741463409        -2.3539977268         1.2951375055
   H        -6.5231316658        -2.2660554702         1.8411975352
   C        -4.3557992092        -1.9419474283         2.1369205798
   H        -4.6352634381        -1.1520963343         2.8484642377
   B        -3.7598422968         0.3946646630        -0.6888863281
   N        -3.4301553556        -1.3707901576         1.1417213217
   N        -5.4994075381        -1.3579060558         0.2246492629
   C        -2.4187436697        -2.3195630384         0.6290702399
   H        -1.5404003776        -2.3394514384         1.2837934458
   H        -2.8214155855        -3.3436504743         0.5359353258
   H        -2.0975754645        -2.0093472782        -0.3690756764
   C        -6.6156702847        -1.1667678388        -0.6735923917
   H        -6.5539258368        -0.1983445308        -1.1753306116
   H        -6.6479202747        -1.9556615820        -1.4422936256
   H        -7.5527835759        -1.1922143368        -0.1018430124
   N        -4.2719182177         0.3745923443        -2.0115968734
   N        -4.6944487872         0.3428233030        -3.0834219196
   H        -3.8936321837        -2.7664113090         2.6866646043
   H        -5.4888784069        -3.3826301916         0.9037589857
   C        -2.9772992940         1.7220145212        -0.1450121099
   C        -2.1558121656         2.4482986788        -1.2337775245
   C        -2.0626512884         1.4102814170         1.0530435913
   C        -4.0918762254         2.6863233988         0.3403503245
   H        -1.6145508633         2.3443726318         1.4252249904
   H        -2.6084026232         0.9390416291         1.8766376983
   H        -1.2404917520         0.7345751690         0.7871446854
   H        -4.7771606661         2.9514611282        -0.4763568509
   H        -4.6904573583         2.2362409860         1.1439738894
   H        -3.6577439520         3.6222736970         0.7269108138
   H        -2.8010664981         2.8942306191        -2.0036522602
   H        -1.5853981849         3.2721267172        -0.7743871186
   H        -1.4309495956         1.7917538328        -1.7300852834
   C         0.9408072862        -0.4448527246        -0.7028508756
   O         1.0470617021        -1.3761746234         0.0118942131
   O         0.8492812522         0.4794529095        -1.4164418028
