      34
best TS-like step 334
   C        -1.7840000000        -0.9680000000         0.3330000000
   C        -1.4510000000        -3.0850000000         1.2450000000
   H        -2.4810000000        -3.4510000000         1.3890000000
   C        -1.1360000000        -2.0350000000         2.3570000000
   H        -1.6660000000        -2.2360000000         3.3000000000
   B        -2.3590000000         0.0240000000        -0.6610000000
   N        -1.6820000000        -0.8150000000         1.7270000000
   N        -1.3910000000        -2.2460000000         0.0460000000
   C        -1.2360000000         0.4430000000         2.3060000000
   H        -0.1360000000         0.5250000000         2.3220000000
   H        -1.6490000000         1.2750000000         1.7310000000
   H        -1.6180000000         0.5380000000         3.3330000000
   C        -1.6250000000        -2.8470000000        -1.2650000000
   H        -2.5090000000        -3.5060000000        -1.2060000000
   H        -1.8290000000        -2.1100000000        -2.0280000000
   H        -0.7440000000        -3.4130000000        -1.5880000000
   N        -2.1390000000        -0.0670000000        -2.0700000000
   N        -2.0720000000        -0.3260000000        -3.1740000000
   C        -3.2310000000         1.2870000000        -0.3790000000
   C        -2.8180000000         2.5360000000        -0.9350000000
   C        -4.5480000000         1.2870000000         0.2050000000
   C        -3.6660000000         3.6020000000        -0.9990000000
   H        -1.7960000000         2.6050000000        -1.3190000000
   C        -5.3580000000         2.4070000000         0.0950000000
   H        -4.9490000000         0.3720000000         0.6740000000
   C        -4.9880000000         3.5850000000        -0.5710000000
   H        -3.3090000000         4.4990000000        -1.4990000000
   H        -6.3670000000         2.3790000000         0.5160000000
   H        -5.6980000000         4.4100000000        -0.6960000000
   H        -0.0580000000        -1.9900000000         2.5520000000
   H        -0.7540000000        -3.9260000000         1.1920000000
   C         2.4860000000         0.4610000000        -0.9840000000
   O         2.2640000000         0.0600000000         0.1310000000
   O         2.7490000000         0.8050000000        -2.0860000000
