      34
final step 1000
   C        -1.6700000000        -1.0290000000         0.5910000000
   C        -0.2450000000        -2.6240000000         1.4720000000
   H        -0.4400000000        -2.8750000000         2.5300000000
   C         0.5090000000        -1.2780000000         1.4780000000
   H         0.9010000000        -1.0750000000         2.4880000000
   B        -2.7110000000        -0.2260000000        -0.1510000000
   N        -0.5940000000        -0.3750000000         1.1730000000
   N        -1.5240000000        -2.3740000000         0.7430000000
   C        -0.2980000000         0.9960000000         0.8680000000
   H        -0.0070000000         1.1350000000        -0.1950000000
   H        -1.1640000000         1.6400000000         1.0560000000
   H         0.5170000000         1.3680000000         1.4980000000
   C        -2.4600000000        -3.4400000000         0.3430000000
   H        -3.0310000000        -3.8240000000         1.2040000000
   H        -3.1320000000        -3.0910000000        -0.4440000000
   H        -1.8750000000        -4.2690000000        -0.0760000000
   N        -2.8530000000        -0.6720000000        -1.4530000000
   N        -2.9020000000        -1.1640000000        -2.4780000000
   C        -3.5680000000         1.0210000000         0.1120000000
   C        -4.1670000000         1.6970000000        -0.9510000000
   C        -3.7560000000         1.6410000000         1.3480000000
   C        -4.7960000000         2.9200000000        -0.8140000000
   H        -4.0730000000         1.3060000000        -1.9630000000
   C        -4.4030000000         2.8900000000         1.4930000000
   H        -3.3270000000         1.2050000000         2.2460000000
   C        -4.8990000000         3.5350000000         0.3960000000
   H        -5.1760000000         3.3800000000        -1.6970000000
   H        -4.4550000000         3.2650000000         2.4960000000
   H        -5.3670000000         4.5080000000         0.5860000000
   H         1.3470000000        -1.1870000000         0.7660000000
   H         0.3220000000        -3.4620000000         1.0360000000
   C         2.0220000000         0.7890000000        -2.6860000000
   O         1.8510000000        -0.3400000000        -2.5300000000
   O         2.2800000000         1.9010000000        -2.9080000000
