      34
best bond-forming step 117
   C        -1.8520000000        -0.9900000000         0.2540000000
   C        -1.6130000000        -3.1710000000         1.0710000000
   H        -2.5600000000        -3.7470000000         1.0770000000
   C        -1.5530000000        -2.1510000000         2.2200000000
   H        -2.1130000000        -2.4450000000         3.1160000000
   B        -2.0150000000         0.1700000000        -0.7110000000
   N        -2.1450000000        -0.9680000000         1.5980000000
   N        -1.5440000000        -2.2660000000        -0.0810000000
   C        -2.0630000000         0.2470000000         2.3630000000
   H        -1.0120000000         0.5610000000         2.5050000000
   H        -2.6190000000         1.0700000000         1.9210000000
   H        -2.4900000000         0.0220000000         3.3470000000
   C        -1.5960000000        -2.6810000000        -1.4510000000
   H        -2.5240000000        -2.3710000000        -1.9570000000
   H        -0.7350000000        -2.3260000000        -2.0280000000
   H        -1.5850000000        -3.7750000000        -1.4570000000
   N        -1.3300000000         0.2920000000        -1.9680000000
   N        -0.8880000000         0.6850000000        -2.9830000000
   C        -3.0430000000         1.3240000000        -0.5240000000
   C        -2.7550000000         2.5830000000        -1.0710000000
   C        -4.3810000000         1.2120000000        -0.0060000000
   C        -3.6870000000         3.6300000000        -1.1520000000
   H        -1.7510000000         2.7710000000        -1.4560000000
   C        -5.3160000000         2.2200000000        -0.1460000000
   H        -4.6590000000         0.2600000000         0.4530000000
   C        -5.0380000000         3.5080000000        -0.7800000000
   H        -3.3260000000         4.5520000000        -1.6310000000
   H        -6.3060000000         2.0310000000         0.2710000000
   H        -5.8120000000         4.2710000000        -0.8720000000
   H        -0.5050000000        -1.9560000000         2.5020000000
   H        -0.7810000000        -3.8780000000         1.0540000000
   C         2.3400000000         0.2060000000        -0.4880000000
   O         2.6300000000         0.0530000000         0.6320000000
   O         2.0510000000         0.2780000000        -1.6310000000
