      34
best product-like step 280
   C        -1.7280000000        -0.9640000000         0.3370000000
   C        -1.6060000000        -3.1340000000         1.2120000000
   H        -2.6670000000        -3.4570000000         1.2750000000
   C        -1.2400000000        -2.1300000000         2.2980000000
   H        -1.6840000000        -2.3270000000         3.2770000000
   B        -2.1370000000         0.1590000000        -0.6050000000
   N        -1.7280000000        -0.8780000000         1.7420000000
   N        -1.3460000000        -2.3030000000         0.0320000000
   C        -1.3970000000         0.3470000000         2.4710000000
   H        -0.3120000000         0.4480000000         2.6320000000
   H        -1.7640000000         1.2090000000         1.9020000000
   H        -1.9050000000         0.3490000000         3.4430000000
   C        -1.6000000000        -2.9640000000        -1.2740000000
   H        -2.5960000000        -3.4220000000        -1.2900000000
   H        -1.5590000000        -2.2400000000        -2.0840000000
   H        -0.8290000000        -3.7220000000        -1.4680000000
   N        -1.8630000000        -0.0480000000        -1.9900000000
   N        -1.7590000000         0.0720000000        -3.1420000000
   C        -3.1370000000         1.4320000000        -0.4190000000
   C        -2.8030000000         2.6640000000        -0.9990000000
   C        -4.4810000000         1.2900000000         0.1120000000
   C        -3.7040000000         3.6850000000        -1.0880000000
   H        -1.8090000000         2.8050000000        -1.4230000000
   C        -5.3920000000         2.3260000000        -0.0520000000
   H        -4.8170000000         0.3760000000         0.5860000000
   C        -5.0070000000         3.5160000000        -0.6450000000
   H        -3.4760000000         4.6470000000        -1.5540000000
   H        -6.4130000000         2.2350000000         0.3210000000
   H        -5.7570000000         4.3000000000        -0.7070000000
   H        -0.1430000000        -2.1510000000         2.4140000000
   H        -0.9570000000        -4.0250000000         1.2460000000
   C         2.3790000000         0.3500000000        -0.9150000000
   O         2.1650000000         0.0600000000         0.2340000000
   O         2.5260000000         0.7050000000        -2.0410000000
