      24
final step 1000
   C        -6.1260000000         1.6070000000         0.8560000000
   C        -6.1900000000         2.0580000000        -1.5180000000
   H        -7.1340000000         1.9420000000        -2.0640000000
   C        -5.1670000000         0.9340000000        -1.4540000000
   H        -5.4600000000         0.0540000000        -2.0730000000
   B        -1.2060000000         1.8070000000         4.0820000000
   N        -5.0910000000         0.9070000000         0.1480000000
   N        -6.6120000000         2.3510000000        -0.1390000000
   C        -4.3220000000        -0.2250000000         0.7540000000
   H        -3.5810000000        -0.7480000000         0.1600000000
   H        -3.9090000000         0.2140000000         1.6750000000
   H        -5.0430000000        -0.9980000000         1.0770000000
   C        -7.9010000000         3.1540000000        -0.1450000000
   H        -8.4940000000         2.7000000000        -0.9900000000
   H        -8.2130000000         3.0510000000         0.9220000000
   H        -7.5430000000         4.0410000000        -0.5420000000
   N         7.9380000000        -3.9280000000        -2.6440000000
   N         8.7080000000        -3.7300000000        -1.8210000000
   H        -4.1100000000         1.2100000000        -1.5880000000
   H        -5.8620000000         2.9980000000        -1.9680000000
   H         1.4770000000       -18.0600000000        13.5070000000
   C         5.9230000000        -4.4200000000        -1.3040000000
   O         5.4420000000        -5.3650000000        -0.9770000000
   O        -1.6060000000         2.1420000000         5.1340000000
