      24
best bond-forming step 75
   C        -2.0040000000        -0.1540000000         0.4080000000
   C        -3.5060000000         1.5050000000        -0.6560000000
   H        -4.4810000000         1.1510000000        -1.0070000000
   C        -2.4240000000         1.0260000000        -1.6210000000
   H        -2.6890000000         1.0960000000        -2.6800000000
   B        -0.4820000000        -0.5130000000         1.2020000000
   N        -2.3140000000        -0.4280000000        -1.1100000000
   N        -3.0840000000         0.8490000000         0.6510000000
   C        -1.4250000000        -1.4580000000        -1.7520000000
   H        -0.5960000000        -1.8500000000        -1.1700000000
   H        -2.0200000000        -2.3700000000        -1.8940000000
   H        -0.8890000000        -1.1350000000        -2.6460000000
   C        -3.9380000000         1.0760000000         1.9070000000
   H        -3.3560000000         0.6990000000         2.7490000000
   H        -4.1750000000         2.1310000000         2.0770000000
   H        -4.8700000000         0.5020000000         1.8740000000
   N        -0.1020000000        -2.2660000000         0.7260000000
   N        -0.8350000000        -3.1150000000         0.7060000000
   H        -1.4980000000         1.5920000000        -1.4550000000
   H        -3.5610000000         2.5930000000        -0.5220000000
   H         0.5360000000        -0.0650000000         2.0200000000
   C         1.2790000000        -0.4050000000         0.5790000000
   O         2.4010000000        -0.0900000000         0.4610000000
   O         0.0810000000        -0.4350000000         0.3120000000
