      24
best product-like step 81
   C        -1.9590000000        -0.0970000000         0.4100000000
   C        -3.4970000000         1.4950000000        -0.6520000000
   H        -4.4880000000         1.1350000000        -0.9750000000
   C        -2.4360000000         1.0320000000        -1.6230000000
   H        -2.7520000000         1.0750000000        -2.6750000000
   B        -0.5640000000        -0.4700000000         1.4600000000
   N        -2.2910000000        -0.4230000000        -1.0920000000
   N        -3.0470000000         0.8250000000         0.6470000000
   C        -1.5030000000        -1.4970000000        -1.8490000000
   H        -0.6950000000        -1.9480000000        -1.2950000000
   H        -2.1920000000        -2.3280000000        -2.1070000000
   H        -0.9880000000        -1.0940000000        -2.7370000000
   C        -3.8910000000         1.0600000000         1.9030000000
   H        -3.3000000000         0.6580000000         2.7400000000
   H        -4.1050000000         2.1230000000         2.0770000000
   H        -4.8380000000         0.4930000000         1.8620000000
   N         0.0660000000        -2.3320000000         0.7320000000
   N        -0.7900000000        -3.0720000000         0.6760000000
   H        -1.5010000000         1.6050000000        -1.5120000000
   H        -3.5460000000         2.5840000000        -0.5030000000
   H         0.7860000000         0.1450000000         1.9280000000
   C         1.2050000000        -0.4410000000         0.6660000000
   O         2.3140000000        -0.1180000000         0.3860000000
   O         0.0330000000        -0.3780000000         0.2620000000
