      36
best product-like step 279
   C        -2.2510000000         0.7810000000        -0.1240000000
   C        -3.7680000000         2.2940000000         0.9400000000
   H        -4.5950000000         1.8240000000         1.4980000000
   C        -4.0810000000         2.3170000000        -0.5390000000
   H        -5.1410000000         2.0990000000        -0.7440000000
   B        -0.7990000000        -0.5140000000         0.0140000000
   N        -3.2280000000         1.1840000000        -1.0740000000
   N        -2.5070000000         1.4970000000         1.0150000000
   C        -3.7040000000         0.6680000000        -2.4210000000
   H        -4.0660000000         1.5220000000        -3.0070000000
   H        -2.8370000000         0.2340000000        -2.9300000000
   H        -4.5160000000        -0.0600000000        -2.3400000000
   C        -1.7850000000         1.4430000000         2.3090000000
   H        -0.7000000000         1.3950000000         2.2140000000
   H        -2.0090000000         2.3720000000         2.8420000000
   H        -2.1160000000         0.6020000000         2.9330000000
   N         0.7830000000         0.1020000000        -2.2510000000
   N        -0.1000000000         0.7470000000        -2.4470000000
   H        -3.8580000000         3.2750000000        -1.0190000000
   H        -3.6340000000         3.3100000000         1.3350000000
   C        -1.4900000000        -2.0840000000        -0.1920000000
   C        -1.1060000000        -3.1300000000        -1.2430000000
   C        -3.0320000000        -2.4120000000        -0.2010000000
   C        -0.7820000000        -2.3780000000         1.2090000000
   H        -3.0900000000        -3.4400000000         0.1830000000
   H        -3.6820000000        -1.7670000000         0.4030000000
   H        -3.3910000000        -2.4330000000        -1.2280000000
   H         0.2710000000        -2.0270000000         1.2620000000
   H        -1.3310000000        -1.8780000000         2.0300000000
   H        -0.8090000000        -3.4570000000         1.4310000000
   H        -0.0320000000        -3.1850000000        -1.4980000000
   H        -1.3760000000        -4.0990000000        -0.8170000000
   H        -1.6780000000        -3.0490000000        -2.1800000000
   C         0.3690000000         0.4710000000         0.5000000000
   O         0.1090000000         1.6990000000         0.0460000000
   O         1.3900000000        -0.2410000000         1.1490000000
