      36
best TS-like step 233
   C        -2.2590000000         1.0320000000        -0.4670000000
   C        -3.8820000000         1.9870000000         0.9150000000
   H        -4.4860000000         1.1180000000         1.2250000000
   C        -4.1970000000         2.4260000000        -0.5020000000
   H        -5.2160000000         2.2120000000        -0.8520000000
   B        -0.8550000000        -0.4760000000        -0.3940000000
   N        -3.2000000000         1.5380000000        -1.2790000000
   N        -2.4860000000         1.6090000000         0.7210000000
   C        -3.5980000000         0.8640000000        -2.4420000000
   H        -3.6960000000         1.5090000000        -3.3170000000
   H        -2.8980000000         0.0450000000        -2.6320000000
   H        -4.5880000000         0.4360000000        -2.2510000000
   C        -1.8500000000         1.3240000000         1.9960000000
   H        -0.7980000000         1.0760000000         1.9640000000
   H        -1.9670000000         2.2630000000         2.5370000000
   H        -2.4710000000         0.6020000000         2.5440000000
   N         0.3790000000         0.0820000000        -1.4590000000
   N        -0.2360000000         0.5810000000        -2.3110000000
   H        -3.9950000000         3.4890000000        -0.6420000000
   H        -4.0200000000         2.7860000000         1.6470000000
   C        -1.4390000000        -1.9320000000        -0.0810000000
   C        -0.9010000000        -2.9530000000        -1.1200000000
   C        -2.9530000000        -2.1240000000         0.2140000000
   C        -0.7250000000        -2.2080000000         1.2470000000
   H        -3.0440000000        -3.0740000000         0.7570000000
   H        -3.3080000000        -1.3240000000         0.8730000000
   H        -3.5680000000        -2.1730000000        -0.6860000000
   H         0.3040000000        -2.5300000000         1.0690000000
   H        -0.6510000000        -1.3580000000         1.9380000000
   H        -1.2180000000        -3.0180000000         1.7970000000
   H         0.1990000000        -2.8760000000        -1.2720000000
   H        -1.1290000000        -3.9800000000        -0.8320000000
   H        -1.3840000000        -2.8050000000        -2.0940000000
   C         0.3990000000        -0.0060000000         0.2020000000
   O         0.1690000000         1.1850000000         0.5970000000
   O         1.5890000000        -0.4030000000         0.6150000000
