      36
best bond-forming step 1116
   C        -3.9610000000         2.3380000000         1.7230000000
   C        -5.6070000000         3.5960000000         0.4760000000
   H        -6.4980000000         2.9800000000         0.2610000000
   C        -4.4110000000         3.2080000000        -0.4760000000
   H        -4.7690000000         2.6490000000        -1.3470000000
   B         0.3710000000        -4.8750000000         2.7740000000
   N        -3.5930000000         2.2740000000         0.4110000000
   N        -5.0450000000         3.1220000000         1.7910000000
   C        -2.2000000000         1.9010000000        -0.0370000000
   H        -2.0160000000         0.8120000000         0.0890000000
   H        -2.0120000000         2.0700000000        -1.1160000000
   H        -1.5310000000         2.4820000000         0.6150000000
   C        -5.8780000000         2.9080000000         3.0450000000
   H        -6.5860000000         2.0830000000         2.8910000000
   H        -5.0510000000         2.7490000000         3.7480000000
   H        -6.3460000000         3.8710000000         3.3090000000
   N        -0.0370000000         1.5720000000        -4.6800000000
   N         0.3500000000         0.5390000000        -4.2280000000
   H        -3.8940000000         4.1080000000        -0.8510000000
   H        -5.9440000000         4.6410000000         0.5360000000
   C         0.5770000000        -3.9990000000         1.4700000000
   C         1.2150000000        -2.6620000000         1.8790000000
   C        -0.9070000000        -3.5610000000         1.0010000000
   C         1.3510000000        -4.6230000000         0.2820000000
   H        -0.7570000000        -2.9670000000         0.0860000000
   H        -1.4370000000        -4.4710000000         0.7200000000
   H        -1.3650000000        -2.8470000000         1.7090000000
   H         0.5820000000        -4.6810000000        -0.5480000000
   H         1.9600000000        -3.7910000000        -0.1120000000
   H         1.7010000000        -5.6410000000         0.2990000000
   H         2.2310000000        -2.9120000000         2.2600000000
   H         1.2860000000        -1.9380000000         1.0280000000
   H         0.5970000000        -2.1780000000         2.6600000000
   C         0.8910000000         2.7630000000        -5.3170000000
   O         0.5890000000         3.5210000000        -6.2130000000
   O         0.4060000000        -5.8890000000         3.3900000000
