      36
final step 2000
   C        -4.5900000000         1.4330000000         0.0790000000
   C        -2.4940000000         2.6550000000        -0.2640000000
   H        -2.1750000000         2.8410000000        -1.3030000000
   C        -2.2140000000         1.2100000000         0.2850000000
   H        -1.4060000000         0.6430000000        -0.2060000000
   B         1.1120000000        -3.2790000000         1.0850000000
   N        -3.5630000000         0.5660000000         0.3930000000
   N        -3.9920000000         2.6360000000        -0.2410000000
   C        -3.4910000000        -0.4940000000         1.3540000000
   H        -4.3720000000        -0.5350000000         2.0230000000
   H        -3.3340000000        -1.4350000000         0.7840000000
   H        -2.5950000000        -0.3720000000         1.9890000000
   C        -4.7920000000         3.6440000000        -0.9590000000
   H        -4.2060000000         4.5850000000        -0.9510000000
   H        -4.9240000000         3.3100000000        -2.0090000000
   H        -5.6910000000         3.8440000000        -0.3420000000
   N        -1.5940000000         3.6930000000        -4.6730000000
   N        -2.3160000000         4.5030000000        -4.6120000000
   H        -1.9060000000         1.3740000000         1.3180000000
   H        -2.0290000000         3.3880000000         0.4070000000
   C         0.8620000000        -3.4480000000         2.6870000000
   C         1.7440000000        -4.6410000000         3.3520000000
   C        -0.7020000000        -4.0690000000         2.6230000000
   C         1.0990000000        -2.0670000000         3.3080000000
   H        -1.0490000000        -4.1580000000         3.6580000000
   H        -1.2800000000        -3.3270000000         2.0690000000
   H        -0.9480000000        -5.0210000000         2.1570000000
   H         2.1510000000        -2.1590000000         3.5300000000
   H         1.2280000000        -1.3990000000         2.4620000000
   H         0.3890000000        -1.8490000000         4.1320000000
   H         2.8060000000        -4.3170000000         3.3010000000
   H         1.5700000000        -4.7290000000         4.4390000000
   H         1.7120000000        -5.6280000000         2.8850000000
   C        -0.6970000000         2.0340000000        -3.7950000000
   O        -1.6150000000         1.3870000000        -3.8000000000
   O         1.2460000000        -3.2760000000        -0.1160000000
