      36
Step =        0, E =     -7.60649464
   C        -3.2557857783         1.1171241492        -0.0791877756
   C        -2.5794522877         3.2890115658         0.5515616852
   H        -3.1616544786         4.0244312928         1.1229105430
   C        -2.9718246393         3.2988005497        -0.9330888456
   H        -3.9030304807         3.8644364871        -1.1096107714
   B        -3.6354455698        -0.3800000658         0.0102604844
   N        -3.1545306727         1.8776071201        -1.2200208856
   N        -2.9146097032         1.9270117884         0.9834144550
   C        -3.2881332833         1.4484341689        -2.5947163402
   H        -2.6242392350         0.6073009967        -2.8211826890
   H        -4.3177635677         1.1634733995        -2.8505941131
   H        -3.0036960851         2.2918747432        -3.2321192345
   C        -3.2714387174         1.7521789642         2.3787333969
   H        -2.3859005447         1.8762569395         3.0153451956
   H        -4.0349870095         2.4923455717         2.6650815272
   H        -3.6842652536         0.7635238231         2.5694165530
   N        -3.1490300525        -0.9810048507         1.1907152301
   N        -2.8213158089        -1.5271796540         2.1551742373
   H        -2.1880661582         3.7284243017        -1.5698997345
   H        -1.5113969852         3.5109009877         0.7007050742
   C        -4.6125133768        -1.3122437039        -0.9132824866
   C        -4.0594913444        -1.6176780059        -2.3323315578
   C        -5.9795376534        -0.5912851662        -1.0051678680
   C        -4.8342647693        -2.6794170079        -0.2273984238
   H        -6.6536089909        -1.0912424186        -1.7184253442
   H        -6.4758125863        -0.5819221630        -0.0249844802
   H        -5.8776725397         0.4565584031        -1.3180173543
   H        -3.9019080002        -3.2559107557        -0.1521116109
   H        -5.2520076897        -2.5799995736         0.7833967374
   H        -5.5404552762        -3.2786624963        -0.8220261989
   H        -2.9679296703        -1.7318095567        -2.3403025524
   H        -4.4926070471        -2.5558780501        -2.7093589678
   H        -4.3228022538        -0.8436571767        -3.0579564433
   C        -0.0622604284        -2.4671034305         1.1644030676
   O        -0.0014438722        -2.8051663643         2.2890866561
   O        -0.0933299530        -2.1419321432         0.0384678972
