      25
best product-like step 161
   C        -2.2710000000        -0.4890000000         0.2320000000
   C        -4.1350000000        -0.5330000000         1.4940000000
   H        -4.1520000000        -1.6410000000         1.4890000000
   C        -4.5700000000        -0.0780000000         0.1190000000
   H        -5.3780000000        -0.7550000000        -0.2050000000
   B        -0.7350000000        -1.0280000000        -0.0640000000
   N        -3.3560000000        -0.4070000000        -0.6190000000
   N        -2.6600000000        -0.1470000000         1.4520000000
   C        -3.4690000000        -0.6840000000        -2.0500000000
   H        -4.4480000000        -0.3040000000        -2.3770000000
   H        -2.7150000000        -0.1550000000        -2.6490000000
   H        -3.4320000000        -1.7570000000        -2.3110000000
   C        -1.8580000000         0.3810000000         2.5290000000
   H        -0.8170000000         0.2480000000         2.2290000000
   H        -2.0840000000         1.4430000000         2.7150000000
   H        -1.9900000000        -0.1980000000         3.4570000000
   N        -0.1580000000        -1.1370000000        -1.3700000000
   N         0.3950000000        -1.1530000000        -2.3710000000
   H        -4.8900000000         0.9740000000         0.0020000000
   H        -4.6720000000        -0.1580000000         2.3710000000
   C        -0.2290000000        -2.2470000000         1.0130000000
   N         0.1150000000        -2.7850000000         2.0410000000
   C         1.3840000000         0.8380000000        -0.5280000000
   O         1.5150000000         0.1360000000         0.4170000000
   O         1.2830000000         1.5650000000        -1.4560000000
