      25
best bond-forming step 148
   C        -2.0540000000        -0.2580000000         0.1350000000
   C        -3.9580000000         1.0860000000         0.4980000000
   H        -4.8530000000         0.5040000000         0.2200000000
   C        -3.2210000000         1.6180000000        -0.7110000000
   H        -3.8970000000         1.7160000000        -1.5710000000
   B        -1.0240000000        -1.3170000000         0.3830000000
   N        -2.2060000000         0.5940000000        -0.9500000000
   N        -2.9410000000         0.2270000000         1.1000000000
   C        -1.5990000000         0.6190000000        -2.2590000000
   H        -0.5200000000         0.8140000000        -2.2420000000
   H        -1.7860000000        -0.3000000000        -2.8290000000
   H        -2.0750000000         1.4320000000        -2.8200000000
   C        -3.4090000000        -0.5430000000         2.2330000000
   H        -2.6100000000        -1.1440000000         2.6690000000
   H        -3.7630000000         0.1540000000         3.0000000000
   H        -4.2340000000        -1.2150000000         1.9510000000
   N        -0.1380000000        -1.6790000000        -0.7510000000
   N         0.2630000000        -2.1210000000        -1.7350000000
   H        -2.7550000000         2.5980000000        -0.5320000000
   H        -4.2580000000         1.8820000000         1.1870000000
   C        -0.7820000000        -2.0630000000         1.6580000000
   N        -0.9930000000        -2.7930000000         2.5340000000
   C         1.1130000000        -0.3630000000        -0.3520000000
   O         0.7220000000        -0.6790000000         0.7340000000
   O         1.4080000000        -0.0320000000        -1.4440000000
