      25
best product-like step 121
   C        -2.0780000000        -0.1930000000         0.1660000000
   C        -3.9920000000         1.1820000000         0.4770000000
   H        -4.9260000000         0.6870000000         0.1670000000
   C        -3.2070000000         1.6770000000        -0.7270000000
   H        -3.8060000000         1.8880000000        -1.6160000000
   B        -0.9800000000        -1.2750000000         0.3610000000
   N        -2.3330000000         0.5060000000        -0.9740000000
   N        -3.0410000000         0.2010000000         1.0530000000
   C        -1.5300000000         0.5480000000        -2.1810000000
   H        -0.4610000000         0.5970000000        -1.9940000000
   H        -1.7310000000        -0.3140000000        -2.8230000000
   H        -1.7970000000         1.4650000000        -2.7110000000
   C        -3.5270000000        -0.5200000000         2.1860000000
   H        -2.7570000000        -1.1280000000         2.6610000000
   H        -3.9090000000         0.2040000000         2.9120000000
   H        -4.3540000000        -1.1860000000         1.9010000000
   N        -0.2900000000        -1.7580000000        -0.7870000000
   N         0.0470000000        -2.1770000000        -1.8100000000
   H        -2.6170000000         2.5740000000        -0.4770000000
   H        -4.2390000000         1.9460000000         1.2220000000
   C        -0.7930000000        -2.0940000000         1.6590000000
   N        -1.1550000000        -2.8210000000         2.4900000000
   C         1.3390000000        -0.3120000000        -0.2850000000
   O         1.1960000000        -0.5790000000         0.8610000000
   O         1.4660000000        -0.0810000000        -1.4400000000
