      25
final step 500
   C        -2.1740000000        -0.6950000000         0.1940000000
   C        -3.2730000000         1.2320000000         0.9650000000
   H        -4.2620000000         1.2860000000         1.4500000000
   C        -3.4450000000         1.0920000000        -0.5310000000
   H        -4.4380000000         0.6270000000        -0.7090000000
   B        -1.3730000000        -1.9940000000         0.1880000000
   N        -2.4140000000         0.1580000000        -0.8480000000
   N        -2.6790000000        -0.0500000000         1.2640000000
   C        -2.4810000000        -0.3370000000        -2.1850000000
   H        -2.7240000000        -1.4160000000        -2.1600000000
   H        -3.2990000000         0.1710000000        -2.7160000000
   H        -1.5360000000        -0.2150000000        -2.7260000000
   C        -2.8920000000        -0.5090000000         2.5830000000
   H        -2.4600000000         0.2050000000         3.3070000000
   H        -3.9840000000        -0.5530000000         2.7520000000
   H        -2.4670000000        -1.4940000000         2.7680000000
   N        -0.4770000000        -2.1650000000        -0.9200000000
   N         0.2150000000        -1.5000000000        -1.5600000000
   H        -3.3420000000         1.9800000000        -1.1700000000
   H        -2.6780000000         2.0990000000         1.2960000000
   C        -0.9210000000        -2.9680000000         1.3410000000
   N        -0.2160000000        -3.0270000000         2.2880000000
   C         1.0630000000         0.8710000000        -0.6660000000
   O         0.1080000000         0.3150000000        -0.2610000000
   O         2.0580000000         1.4360000000        -0.9060000000
