      25
best bond-forming step 148
   C        -2.1640000000        -0.6580000000         0.1170000000
   C        -3.1390000000         1.1270000000         0.9600000000
   H        -3.5940000000         1.7030000000         1.7740000000
   C        -4.0690000000         0.7410000000        -0.1920000000
   H        -5.0630000000         0.4000000000         0.1460000000
   B        -0.6730000000        -1.1980000000         0.1840000000
   N        -3.2720000000        -0.4510000000        -0.7900000000
   N        -2.6110000000        -0.2060000000         1.3390000000
   C        -3.4840000000        -0.7890000000        -2.2160000000
   H        -2.6630000000        -0.4120000000        -2.8550000000
   H        -3.6060000000        -1.8750000000        -2.3660000000
   H        -4.3930000000        -0.2610000000        -2.5420000000
   C        -2.6820000000        -0.7570000000         2.7000000000
   H        -3.3680000000        -0.0980000000         3.2570000000
   H        -3.0500000000        -1.7880000000         2.7080000000
   H        -1.7020000000        -0.7530000000         3.1950000000
   N         0.1400000000        -1.4190000000        -0.9700000000
   N         0.9170000000        -1.7410000000        -1.7640000000
   H        -4.1780000000         1.5630000000        -0.9150000000
   H        -2.3150000000         1.7410000000         0.5520000000
   C        -0.4080000000        -2.3150000000         1.3350000000
   N        -1.0340000000        -3.1140000000         1.9200000000
   C         1.2680000000         0.9750000000        -0.5650000000
   O         0.3800000000         0.7430000000         0.1840000000
   O         2.1530000000         1.2030000000        -1.3050000000
