      25
best product-like step 280
   C        -2.1760000000        -0.3520000000         0.1200000000
   C        -3.9600000000         0.7730000000         1.2280000000
   H        -4.6450000000         0.4740000000         2.0360000000
   C        -4.3820000000         0.3980000000        -0.1970000000
   H        -5.0390000000        -0.4850000000        -0.1590000000
   B        -0.9780000000        -1.2950000000        -0.0180000000
   N        -3.0690000000         0.0110000000        -0.9420000000
   N        -2.6890000000         0.0010000000         1.3230000000
   C        -3.1660000000        -1.1720000000        -1.9230000000
   H        -4.2220000000        -1.3070000000        -2.2050000000
   H        -2.5960000000        -0.9950000000        -2.8450000000
   H        -2.8030000000        -2.0880000000        -1.4440000000
   C        -2.2000000000        -0.2830000000         2.7120000000
   H        -2.9310000000        -0.9670000000         3.1840000000
   H        -1.2160000000        -0.7440000000         2.8150000000
   H        -2.2620000000         0.6630000000         3.2660000000
   N        -0.1730000000        -1.1910000000        -1.1450000000
   N         0.8180000000        -1.4120000000        -1.6830000000
   H        -4.9280000000         1.2220000000        -0.6630000000
   H        -3.7970000000         1.8630000000         1.3190000000
   C        -0.7180000000        -2.7770000000         0.9560000000
   N        -0.3750000000        -3.2940000000         1.9560000000
   C         1.4730000000         0.9250000000        -0.5080000000
   O         0.7160000000         0.7090000000         0.3590000000
   O         2.0690000000         1.1570000000        -1.4800000000
