      25
best bond-forming step 292
   C        -2.0970000000        -0.5420000000         0.3140000000
   C        -4.1360000000        -0.0610000000         1.6410000000
   H        -4.7370000000        -0.5720000000         2.4020000000
   C        -4.5630000000        -0.2950000000         0.1260000000
   H        -5.3140000000        -1.0880000000        -0.0420000000
   B        -0.6540000000        -0.8580000000        -0.0100000000
   N        -3.2130000000        -0.6130000000        -0.4880000000
   N        -2.5940000000        -0.3980000000         1.6290000000
   C        -3.0940000000        -0.9380000000        -1.9300000000
   H        -2.9150000000        -2.0070000000        -2.1460000000
   H        -3.9640000000        -0.5700000000        -2.4890000000
   H        -2.2580000000        -0.3830000000        -2.3700000000
   C        -1.7060000000        -0.3460000000         2.8750000000
   H        -0.6240000000        -0.2730000000         2.7630000000
   H        -2.0730000000         0.5370000000         3.4240000000
   H        -1.8800000000        -1.2690000000         3.4560000000
   N        -0.2750000000        -1.2140000000        -1.5190000000
   N         0.6590000000        -0.9750000000        -2.1500000000
   H        -4.9900000000         0.6310000000        -0.3000000000
   H        -4.3280000000         1.0110000000         1.8190000000
   C        -0.3520000000        -1.8310000000         1.1690000000
   N        -0.1320000000        -2.7810000000         1.8090000000
   C         1.1160000000         0.9840000000        -0.9370000000
   O         0.9470000000         0.3390000000         0.0470000000
   O         1.3690000000         1.8250000000        -1.7020000000
