      25
final step 500
   C        -2.0430000000        -0.8170000000         0.3340000000
   C        -3.7840000000         0.1570000000         1.5490000000
   H        -4.3840000000        -0.4550000000         2.2410000000
   C        -4.2730000000        -0.0300000000         0.1020000000
   H        -5.1210000000        -0.7380000000         0.1640000000
   B        -0.6210000000        -1.2760000000         0.2130000000
   N        -3.1120000000        -0.6220000000        -0.5300000000
   N        -2.3720000000        -0.1930000000         1.4830000000
   C        -3.1620000000        -1.0990000000        -1.9090000000
   H        -2.3050000000        -0.8500000000        -2.5430000000
   H        -3.3370000000        -2.1850000000        -1.9790000000
   H        -3.9930000000        -0.5440000000        -2.3670000000
   C        -1.5940000000        -0.5830000000         2.6640000000
   H        -2.2490000000        -0.3140000000         3.5030000000
   H        -1.4400000000        -1.6650000000         2.7050000000
   H        -0.6230000000        -0.0900000000         2.7710000000
   N        -0.1050000000        -1.3650000000        -1.0570000000
   N         0.0070000000        -0.7700000000        -2.0080000000
   H        -4.5850000000         0.8890000000        -0.4250000000
   H        -3.9150000000         1.2220000000         1.7340000000
   C         0.2770000000        -2.2080000000         0.9600000000
   N         0.6560000000        -3.0400000000         1.7310000000
   C         0.5030000000         1.3520000000        -0.9190000000
   O        -0.3910000000         1.0890000000        -0.1900000000
   O         1.4960000000         1.5610000000        -1.5090000000
