      25
final step 500
   C        -2.3030000000        -0.6570000000         0.3440000000
   C        -4.3430000000        -0.0760000000         1.3670000000
   H        -4.5860000000        -1.1470000000         1.4240000000
   C        -4.4440000000         0.2850000000        -0.1100000000
   H        -5.4330000000        -0.0060000000        -0.5050000000
   B        -0.8990000000        -1.6650000000         0.0500000000
   N        -3.3690000000        -0.5910000000        -0.6150000000
   N        -2.8790000000        -0.1230000000         1.5380000000
   C        -3.1240000000        -0.4890000000        -2.0450000000
   H        -2.0780000000        -0.3760000000        -2.3310000000
   H        -3.5500000000        -1.3610000000        -2.5690000000
   H        -3.6360000000         0.4300000000        -2.3600000000
   C        -1.9980000000         0.8910000000         2.2200000000
   H        -1.0790000000         0.9490000000         1.6150000000
   H        -2.4650000000         1.8820000000         2.1370000000
   H        -1.7330000000         0.5880000000         3.2390000000
   N        -0.3850000000        -1.3550000000        -1.3540000000
   N         0.2720000000        -0.9700000000        -2.2620000000
   H        -4.2640000000         1.3540000000        -0.3440000000
   H        -5.0030000000         0.4690000000         2.0520000000
   C        -0.1870000000        -2.7490000000         1.1550000000
   N         0.5050000000        -3.0560000000         2.0980000000
   C         1.4990000000         0.7720000000        -0.4840000000
   O         1.1430000000        -0.0020000000         0.3280000000
   O         1.7000000000         1.6300000000        -1.2640000000
