      36
Step =        0, E =     -7.59852377
   C        -3.9437781445        -0.9981984127         0.9495674894
   C        -2.5066552273        -2.4037015604         2.1788779464
   H        -1.5279145786        -1.9314570693         2.3819977652
   C        -2.5866063525        -2.8951845895         0.7360400627
   H        -1.6052958213        -3.1239347823         0.3069914971
   B        -5.1103036668        -0.0171727989         0.6629773445
   N        -3.1946303270        -1.7437390908         0.0670995563
   N        -3.5904652132        -1.4197253782         2.2215125968
   C        -2.9634609009        -1.5387469371        -1.3412640030
   H        -1.8859417611        -1.3858500963        -1.5238384260
   H        -3.3160995040        -2.3891232582        -1.9441163970
   H        -3.4845284553        -0.6448374399        -1.6734943427
   C        -3.8245068549        -0.7302714180         3.4806720597
   H        -2.9131605744        -0.7943785362         4.0873835301
   H        -4.0444792243         0.3306688095         3.3241486814
   H        -4.6571353742        -1.1792159656         4.0381256766
   N        -5.9792714671        -0.0490980872         1.7827062732
   N        -6.7216141203        -0.0760962753         2.6644952939
   H        -3.2216106034        -3.7954288155         0.6483471724
   H        -2.6646961190        -3.1995540272         2.9162160998
   C        -5.7358037212         0.8067239971        -0.6213436182
   C        -6.5809782992        -0.1627512263        -1.4817328092
   C        -4.6933069999         1.5229545300        -1.5157965338
   C        -6.6828611227         1.9171298693        -0.1001850260
   H        -5.1983950952         2.3000542502        -2.1088868890
   H        -3.9024075332         2.0111665925        -0.9322264304
   H        -4.2176524666         0.8574888405        -2.2439277585
   H        -7.4370203797         1.5451949240         0.6029953720
   H        -6.1252675005         2.7227087782         0.3965647951
   H        -7.2241378012         2.3640805603        -0.9477926427
   H        -7.3963014419        -0.6074006755        -0.8954235248
   H        -7.0369049173         0.3711606950        -2.3308933538
   H        -5.9820476444        -0.9879310826        -1.8883038615
   C         2.9966307477         1.1319399181        -2.3873864290
   O         3.2001500578         0.3318151214        -1.5567098600
   O         2.7899279123         1.9351958847        -3.2221145957
