      36
Step =        0, E =     -7.60328168
   C        -4.0828084306         0.6601765551        -0.1897885384
   C        -4.7700593760         2.7885173489         0.4566334857
   H        -5.5429180688         3.2046847727         1.1119081481
   C        -5.2603105966         2.5341414336        -0.9804994075
   H        -6.3544396592         2.5819448307        -1.0779592786
   B        -2.9334044484        -0.4059197209        -0.3260136438
   N        -4.7458652460         1.1883352315        -1.2605458361
   N        -4.3411918025         1.4474536661         0.9067297865
   C        -4.6383269613         0.7360274112        -2.6343409164
   H        -4.1599931619         1.5118672348        -3.2492948857
   H        -4.0089580644        -0.1561759123        -2.6830663013
   H        -5.6234812679         0.4923179788        -3.0532973590
   C        -3.4887324827         1.4006726456         2.0872864834
   H        -3.2679912286         0.3625358770         2.3449980034
   H        -2.5326576969         1.9234103226         1.9266225053
   H        -4.0187549105         1.8638461362         2.9273722918
   N        -2.1058338794         0.3965202137        -1.1655884768
   N        -1.6000291002         1.2077859327        -1.8246618710
   H        -4.8213568060         3.2528628942        -1.6879852562
   H        -3.9032749958         3.4716185849         0.4569493275
   C        -2.7760070316        -1.9407783830         0.1760937977
   C        -2.4258229700        -2.8505701248        -1.0267687717
   C        -4.1527221524        -2.3410443184         0.7482245188
   C        -1.7305507651        -2.2543577228         1.2859785447
   H        -4.1582393202        -3.4129977264         0.9944219386
   H        -4.3698234192        -1.7934625409         1.6752433609
   H        -4.9686657237        -2.1464670849         0.0416457625
   H        -0.7147185116        -2.3497781687         0.8877328190
   H        -1.7160247400        -1.5249101040         2.1039311599
   H        -1.9768965278        -3.2337209771         1.7255256575
   H        -1.4956536037        -2.5291910862        -1.5133020957
   H        -2.2812927133        -3.8883529301        -0.6838701946
   H        -3.2207846009        -2.8613407358        -1.7836939898
   C         0.1345701526        -0.0382983536         0.3039444223
   O        -0.1773761790         0.6359252389         1.2157533936
   O         0.4742193066        -0.7202221789        -0.5855119430
