      66
Step =        0, E =      0.00000000
   O         2.2343929842         3.2919422933        -2.4604004979
   H         1.5462010135         3.8140061438        -2.8696052845
   H         1.8004707231         2.4805836192        -2.2018986624
   O        -1.2064188535        -4.9611359615        -1.5734473852
   H        -0.9475738087        -4.4074561387        -0.8385696357
   H        -1.6349231319        -5.7138266635        -1.1693986057
   O         3.6078629933         0.1065227722        -0.7770389568
   H         2.7557210393         0.0527627137        -1.2066566432
   H         3.6510748204         0.9987893397        -0.4373218154
   O        -4.2475270893        -1.7675955823         3.4623991645
   H        -4.5476647191        -1.1997206225         4.1702429633
   H        -4.8007322542        -2.5444167995         3.5250686753
   O        -0.0190656485         2.6862944578        -0.7021821088
   H         0.6760132910         3.0843006768        -0.1805848240
   H        -0.8105596696         3.1592888663        -0.4507300661
   O        -3.0478813781         2.1692499140         0.6392816069
   H        -2.8488363063         1.8339969124        -0.2334118642
   H        -3.3153471895         1.3993651025         1.1384349324
   O         3.9428199594        -3.8963553736         4.3350100450
   H         3.5373126057        -3.3031458031         4.9653064845
   H         4.1177266479        -3.3520276043         3.5691578689
   O         3.1114233493        -5.3099996609        -1.9282531516
   H         3.9891595390        -4.9396998546        -1.8503773223
   H         3.2320322465        -6.2480021445        -1.7903420920
   O        30.4614976146        13.8228980689         0.0953925861
   C        29.2717034063        13.9320299819         0.0389368365
   H        28.6056025620        13.0573852738        -0.0569860713
   H        28.7698341837        14.9135662802         0.0776027453
   O        -9.2877004608        32.7635491188        -3.3996786738
   C        -9.6222158722        31.6242607755        -3.2553568310
   H        -8.8994304906        30.7910333821        -3.2901175513
   H       -10.6733060018        31.3387765483        -3.0807442037
   O        -3.0510956817        24.6320559170       -30.4390316981
   C        -3.4017198639        23.7870806170       -29.6684561279
   H        -2.7764817251        23.4753190115       -28.8141863370
   H        -4.3700716028        23.2680933354       -29.7670887058
   O       -19.9911982673         1.2312540640       -26.7203235289
   C       -19.2951148054         1.7836774100       -25.9196965589
   H       -18.8313184092         1.2462823310       -25.0747147032
   H       -19.0769652636         2.8634235836       -25.9774914729
   O        34.3173931206        -0.8682182117       -14.1084498405
   C        33.2868372650        -0.2635551490       -14.0532729127
   H        32.4115439482        -0.6441309400       -13.4992705829
   H        33.1496977232         0.7095081742       -14.5543934461
   O       -32.4804865066         7.0577443186        13.0733160820
   C       -31.5628962187         6.4004786885        12.6774155400
   H       -30.5442332873         6.8133372499        12.5785795898
   H       -31.6808952406         5.3431742954        12.3859281042
   O        25.0313878372       -12.4315451595        13.8273412640
   C        24.2244249383       -12.5481831783        12.9521762873
   H        23.3639325587       -11.8645359117        12.8518060529
   H        24.2915382947       -13.3471316812        12.1945758905
   O        26.8647590431        -5.9007438359       -23.9761778355
   C        25.9024065703        -5.2876548251       -23.6174204426
   H        25.4267159804        -5.4622038753       -22.6370399061
   H        25.4322664356        -4.5126721883       -24.2460311652
  Ca         2.0571922334        -1.2160584416        -2.8677764114
  Ca        -3.8491746120        -3.9924002828        -1.4915004085
   O        -3.4281328489         2.3054034291        -2.5616336536
   H        -2.5682008523         1.8622482504        -2.5070218519
   O         5.0429744052         1.3563542667         3.0281145649
   H         4.7471099719         0.5543587640         3.4843156728
   O         2.6187043026         5.2682611993         1.7810626642
   H         3.0675351726         4.5576266901         1.2989823341
   O         2.5189166288        -1.2825514043         0.5237662230
   H         1.6792625762        -1.7637644474         0.5713800756
