      66
Step =        0, E =      0.00000000
   O         5.5325029010        -0.6375096581         0.5586444790
   H         4.6821887071        -0.2085298816         0.4777152922
   H         6.1596280667         0.0804889442         0.6265168536
   O        -1.9631448936         2.0692554936         0.5322911080
   H        -1.0844537854         1.9265066732         0.8803315092
   H        -2.2772467454         1.1959286426         0.3041357582
   O         2.2394270874         4.0982600755        -0.1636404224
   H         2.2227869917         3.5409526681         0.6127222319
   H         1.4187946977         3.9079593929        -0.6150413051
   O         0.1070719468         3.0335473421        -3.9350722208
   H         0.2542135446         2.1454959304        -4.2565087627
   H        -0.1052356509         2.9232775892        -3.0097718960
   O         2.8813294102        -0.6332377461        -2.7896218022
   H         3.2108936217        -0.2688951841        -1.9697136743
   H         2.3737770894         0.0752490669        -3.1818611462
   O         0.5920854631        -4.0782926374         4.9714789136
   H         0.4076702412        -3.1427780599         4.9050642205
   H         1.5248426777        -4.1548171559         4.7777713960
   O        -3.8781606633         2.6102826507        -0.9882235582
   H        -3.0745603500         3.1267932139        -1.0206393670
   H        -3.5810447739         1.7019773682        -0.9773475466
   O         1.2277633394        -4.1585108897        -3.0468347861
   H         1.4222686589        -3.2238564823        -3.0936987325
   H         2.0837842252        -4.5835318793        -3.0469995052
   O        25.3442853661        17.0530687812        -3.0848937785
   C        24.8425825540        15.9950092705        -2.8409436928
   H        23.7570003843        15.8229835896        -2.9400064122
   H        25.4350658195        15.1289741617        -2.5007554444
   O       -15.3834412515         7.3565398870       -25.0852828886
   C       -15.3640812531         6.9960198477       -23.9449505792
   H       -14.4205673962         6.8418965834       -23.3936588908
   H       -16.2881809187         6.7944969259       -23.3773154903
   O        15.6138774339       -26.5764747773        19.6128720760
   C        15.7651825844       -25.5381598411        19.0386629427
   H        14.9223544147       -24.9912526630        18.5821236569
   H        16.7564441567       -25.0666240087        18.9298708099
   O       -24.9622296028        19.1178205940       -13.5546960598
   C       -23.8400004739        19.0907351346       -13.1416882582
   H       -23.3195736264        18.1438658138       -12.9169900380
   H       -23.2593589495        20.0107039892       -12.9592218204
   O       -20.5343629714        -5.4028542085       -29.9123946885
   C       -19.4634055762        -5.1235225743       -29.4588184767
   H       -19.2769077200        -5.0889952466       -28.3716564291
   H       -18.5991343900        -4.8821154956       -30.1003316981
   O       -20.1426690150       -18.5117480775       -18.1544155168
   C       -19.3241999623       -18.3070998340       -17.3065152925
   H       -19.1702479233       -17.3060485372       -16.8682345885
   H       -18.6735181679       -19.1065176616       -16.9136723043
   O         9.7463393114       -24.7242264328       -11.7986015547
   C         9.8408817775       -23.6743950563       -11.2332493749
   H         8.9581917451       -23.1251332099       -10.8630269616
   H        10.8158894371       -23.1921453582       -11.0500102786
   O       -12.0847556368        31.6953335303        10.5213903852
   C       -11.6215517900        31.0040253945         9.6621799675
   H       -11.3665854483        29.9442525139         9.8347155018
   H       -11.4201034951        31.3853322314         8.6468943157
  Ca        -4.7368193954        -1.9068610464        -4.2399449496
  Ca         4.2434535899         2.0254066050        -0.9462412724
   O        -0.5300917921        -1.6186306243         2.8025105018
   H         0.1310630976        -1.1060978295         2.3135970676
   O        -0.9499587418        -2.9985127952        -0.8954090982
   H         0.0126866621        -3.0083664150        -1.0052668813
   O         3.5173469747        -1.7041439935         0.5298204937
   H         2.7807467345        -1.8109006122         1.1502035289
   O        -1.3102235831         0.3500778951        -2.5305291207
   H        -1.4168271174         0.2980953432        -1.5688714370
