      66
Step =        0, E =      0.00000000
   O         1.9718700856         2.9260087711         1.3879043406
   H         1.4058677768         2.3206312985         0.9117038449
   H         1.3705184938         3.5364510919         1.8111667434
   O        -5.0401065021         4.5015437790        -5.1260213194
   H        -4.7366179355         3.6098035558        -4.9638440263
   H        -5.6696852591         4.4161816111        -5.8399950687
   O        -3.2559826895        -3.0850808577        -4.5924150112
   H        -3.3534403170        -2.1821541525        -4.8904633057
   H        -2.3217830582        -3.2679146478        -4.6776058539
   O        -3.4941102827         3.7227899556         1.5459298043
   H        -3.9685886142         2.8957614131         1.4788364893
   H        -2.5717319456         3.4725263721         1.5469134825
   O         2.7911713894         2.1575994848         4.9207026784
   H         3.2497499282         1.3196362493         4.9543293020
   H         2.3023210650         2.1324914862         4.0998436318
   O         3.8456905277         0.0059698907        -2.3710097422
   H         3.0501937041        -0.0123211889        -1.8414272178
   H         4.5512764168        -0.1780495994        -1.7531909937
   O        -3.1220516092        -2.8297126934        -1.0764132486
   H        -2.5810165836        -2.1317482722        -0.7107164098
   H        -2.5974164242        -3.1946450017        -1.7870446289
   O         0.2392723146         0.9028048356         3.5350193555
   H         1.1201858287         1.0258915981         3.1850930209
   H         0.0003090487         0.0132817114         3.2799511397
   O       -34.5980353245       -13.0141763428       -11.1010666828
   C       -33.4507167217       -13.1732332616       -10.8026237161
   H       -32.7959883779       -12.3318856312       -10.5173872089
   H       -32.9785918263       -14.1701497756       -10.7965556522
   O       -22.4147761967        26.6160721053        -5.2659875018
   C       -21.9823829906        25.5018029387        -5.2196450405
   H       -20.8990394399        25.2927217649        -5.1962630320
   H       -22.6408686775        24.6170624438        -5.1993440293
   O       -21.3596262564       -31.5213630388        -2.4492901968
   C       -20.3465705726       -30.9600184274        -2.1504295388
   H       -20.3093239457       -29.8719496507        -1.9698362650
   H       -19.3891083626       -31.4964072698        -2.0393691933
   O        -5.6500729243        29.1546160811        -7.4200652055
   C        -5.9197572500        28.0385578199        -7.0848166317
   H        -5.1682750235        27.3588891545        -6.6475296859
   H        -6.9352184426        27.6219267741        -7.1945363293
   O       -28.7448663979        17.0703942110        20.4938868236
   C       -28.3590854680        16.1978251589        19.7724274640
   H       -27.2858064387        15.9806835029        19.6352541028
   H       -29.0532279183        15.5596103112        19.2000383124
   O        -5.7986952328       -37.9526881957         2.3054097349
   C        -5.8225354240       -36.8827820741         1.7711440516
   H        -5.1833756402       -36.0464261530         2.1026232343
   H        -6.4861415116       -36.6681340226         0.9165479783
   O        28.9374351814       -15.0613785659        17.5351018274
   C        28.4737782449       -14.4768780343        16.6001747404
   H        27.4056155171       -14.2043016754        16.5489358875
   H        29.0860648894       -14.1772312240        15.7329388278
   O       -27.1276206797       -18.0619168721        15.1287145476
   C       -25.9818388268       -17.7246633016        15.1931448109
   H       -25.4868578021       -17.1678098269        14.3790177339
   H       -25.3515157107       -17.9518411387        16.0694234616
  Ca         4.0410370653        -1.5345721661         1.0641396927
  Ca        -4.7980915726         4.0717690017        -2.0004245971
   O        -1.9546785602         3.1512001008         3.8567755068
   H        -2.3290423493         2.2575021512         3.8595555060
   O        -0.9119304079         0.8300483418         4.8273077397
   H        -1.3288387574         0.4133930514         4.0582578083
   O         3.7293406785        -4.7007824729         1.6394770824
   H         4.4259319808        -4.7437442204         2.3116131146
   O         1.2888786709        -1.1481935493         1.9257637572
   H         0.8383872655        -1.3945782485         1.1040557351
