       8
Step =        0, E =      0.00000000
   O        -2.1862042940         0.0812607357        -1.0953282807
   C        -2.6476802213        -0.0000709457         0.0051863308
   H        -2.4336276451        -0.8544280101         0.6701302426
   H        -3.3160320113         0.7732382201         0.4200117073
   O         1.7039796550         0.5278878447         0.5017982063
   C         2.6500259286        -0.0023571346        -0.0027253257
   H         2.7665283398        -1.0995768227        -0.0234870400
   H         3.4630102484         0.5740461126        -0.4755858406
