       7
Step =        0, E =      0.00000000
   O        -2.4095862835         0.3390068091        -0.9553243783
   C        -2.8710622108         0.2576751276         0.1451902333
   H        -2.6570096346        -0.5966819367         0.8101341450
   O         1.7039796550         0.5278878447         0.5017982063
   C         2.6500259286        -0.0023571346        -0.0027253257
   H         2.7665283398        -1.0995768227        -0.0234870400
   H         3.4630102484         0.5740461126        -0.4755858406
