      11
Step =        0, E =      0.00000000
   O        -2.7374539675        -1.2440691557         1.4360849785
   O        -2.2353830528         1.4993823993        -0.8885210533
   C        -2.3666953634        -0.5796906640         0.2518417628
   C        -2.5822205500         0.7491252738         0.1113765584
   H        -3.7001700008        -0.4886160748        -1.4065611396
   H        -1.7661273604        -1.1560492273        -0.4483526614
   H        -3.1331520057         1.2199174486         0.9441315545
   O         2.7090041170        -1.1887276554        -0.0244403390
   C         2.6456428027         0.0054527637         0.0005747513
   H         1.6862822774         0.5445487799        -0.0824780780
   H         3.5426149747         0.6387261118         0.1063436657
