      36
Step =        0, E =      0.00000000
   C        -2.7765042593         0.7761046560         0.4788901438
   C        -1.7059853364         1.6233337470         2.3824780943
   H        -1.7787533939         1.0127941308         3.2994678363
   C        -2.9841115583         2.4267864252         2.1267905406
   H        -3.6174096432         2.5071740667         3.0225454966
   B        -3.0860424468        -0.0379736245        -0.7604847980
   N        -3.6421806470         1.6317785434         1.1043936567
   N        -1.6033535315         0.7804274986         1.1985875569
   C        -5.0638806193         1.6993192352         0.8911793261
   H        -5.3533057294         2.4160627537         0.1026173149
   H        -5.4291476193         0.7046646783         0.5940525749
   H        -5.5561467334         1.9970650540         1.8292976375
   C        -0.3050124572         0.5311607219         0.6222858776
   H        -0.4303675528         0.1677891810        -0.4033439297
   H         0.2924532713         1.4608370865         0.5870997024
   H         0.2598726007        -0.2198263628         1.1981806249
   N        -4.0198666898         0.6396615156        -1.5954164999
   N        -4.7176917475         1.1849736078        -2.3102209383
   H        -2.7698917312         3.4507279104         1.7685168129
   H        -0.8186091814         2.2671199689         2.4753305283
   C        -2.6123751193        -1.5126419859        -1.2495732816
   C        -3.8447156371        -2.2656428097        -1.7911101807
   C        -2.0625239714        -2.3332334403        -0.0707091759
   C        -1.5644594266        -1.4676249765        -2.3771760715
   H        -1.8299087021        -3.3638121660        -0.3932422446
   H        -1.1377738282        -1.9097005408         0.3469815079
   H        -2.7973667929        -2.3945732669         0.7480950665
   H        -1.9377887557        -0.8980253650        -3.2434752812
   H        -0.6235848926        -0.9928927301        -2.0552813124
   H        -1.3117482351        -2.4847040871        -2.7290958807
   H        -4.2985584594        -1.7481049492        -2.6518094369
   H        -3.5654363975        -3.2796543258        -2.1288349521
   H        -4.6220641937        -2.3693701506        -1.0170163155
   C         2.6458860429         0.0000000000         0.0000000000
   O         3.0735386508        -0.9317982841         0.5481103075
   O         2.2182334351         0.9317982841        -0.5481103075
