      34
final step 1000
   C        -1.4240000000        -0.8820000000         0.3470000000
   C        -0.0640000000        -2.4350000000         1.5220000000
   H        -0.6120000000        -2.6480000000         2.4570000000
   C         0.5440000000        -1.0940000000         1.6930000000
   H         0.7930000000        -0.9520000000         2.7700000000
   B        -2.4160000000        -0.0480000000        -0.6510000000
   N        -0.6570000000        -0.2980000000         1.3680000000
   N        -1.0320000000        -2.2170000000         0.3900000000
   C        -0.2680000000         1.0800000000         1.5260000000
   H         0.3970000000         1.1250000000         2.4020000000
   H         0.3020000000         1.5030000000         0.6720000000
   H        -1.0780000000         1.7880000000         1.7300000000
   C        -1.8070000000        -3.2640000000        -0.2850000000
   H        -1.3430000000        -3.5580000000        -1.2400000000
   H        -1.8450000000        -4.1550000000         0.3600000000
   H        -2.8390000000        -2.9550000000        -0.4860000000
   N        -3.0510000000        -0.5080000000        -1.9410000000
   N        -3.3890000000        -0.4880000000        -3.0590000000
   C        -3.2830000000         1.2750000000        -0.3350000000
   C        -3.9240000000         2.0470000000        -1.3660000000
   C        -3.6240000000         1.7230000000         0.9520000000
   C        -4.8290000000         3.0900000000        -1.1210000000
   H        -3.6130000000         1.8530000000        -2.3870000000
   C        -4.5830000000         2.7430000000         1.2230000000
   H        -3.2250000000         1.2460000000         1.8360000000
   C        -5.1910000000         3.4150000000         0.2010000000
   H        -5.1100000000         3.7350000000        -1.9280000000
   H        -4.7200000000         3.0250000000         2.2510000000
   H        -5.8140000000         4.2960000000         0.4170000000
   H         1.4160000000        -0.8030000000         1.0640000000
   H         0.6430000000        -3.2470000000         1.3190000000
   C         1.7420000000         0.0650000000        -1.6710000000
   O         2.2680000000        -0.7580000000        -0.9300000000
   O         0.9750000000         0.6340000000        -2.3510000000
