      34
best bond-forming step 40
   C        -1.9720000000        -0.9530000000         0.1360000000
   C        -1.5920000000        -3.0930000000         0.8520000000
   H        -2.4690000000        -3.7600000000         0.7380000000
   C        -1.7220000000        -2.1360000000         2.0560000000
   H        -2.3440000000        -2.5300000000         2.8710000000
   B        -1.8790000000         0.3520000000        -0.5580000000
   N        -2.3440000000        -0.9370000000         1.4530000000
   N        -1.4840000000        -2.1480000000        -0.2510000000
   C        -2.2800000000         0.2790000000         2.2600000000
   H        -1.2400000000         0.6190000000         2.4110000000
   H        -2.8570000000         1.0910000000         1.8150000000
   H        -2.7250000000         0.0390000000         3.2340000000
   C        -1.4930000000        -2.6270000000        -1.6210000000
   H        -2.3850000000        -2.2890000000        -2.1680000000
   H        -0.5930000000        -2.3230000000        -2.1770000000
   H        -1.5090000000        -3.7250000000        -1.5710000000
   N        -1.5720000000         0.3670000000        -2.0410000000
   N        -0.7200000000         0.4640000000        -2.8090000000
   C        -3.0990000000         1.3480000000        -0.5810000000
   C        -2.7970000000         2.6050000000        -1.1820000000
   C        -4.3940000000         1.1450000000        -0.1360000000
   C        -3.6800000000         3.6430000000        -1.2110000000
   H        -1.7780000000         2.7180000000        -1.5770000000
   C        -5.3150000000         2.2400000000        -0.1000000000
   H        -4.7520000000         0.1820000000         0.2640000000
   C        -4.9880000000         3.4990000000        -0.6240000000
   H        -3.3880000000         4.5800000000        -1.6740000000
   H        -6.2890000000         2.0550000000         0.3710000000
   H        -5.7080000000         4.3260000000        -0.5840000000
   H        -0.7130000000        -1.8920000000         2.4880000000
   H        -0.7060000000        -3.7450000000         0.9580000000
   C         2.6800000000         0.0850000000        -0.2210000000
   O         2.8160000000         0.0630000000         0.9550000000
   O         2.0700000000         0.0490000000        -1.2820000000
