      34
best product-like step 819
   C        -1.4320000000        -0.7990000000        -0.1200000000
   C        -0.8760000000        -2.6670000000         1.2910000000
   H        -1.6340000000        -3.0860000000         1.9700000000
   C        -0.2620000000        -1.3260000000         1.8570000000
   H        -0.5920000000        -1.1320000000         2.8950000000
   B        -2.3810000000         0.1180000000        -0.8950000000
   N        -0.6390000000        -0.2680000000         0.8620000000
   N        -1.5030000000        -2.1830000000         0.0430000000
   C        -0.0900000000         1.1360000000         0.8940000000
   H        -0.7560000000         1.8560000000         0.4110000000
   H         0.0340000000         1.4380000000         1.9430000000
   H         0.8660000000         1.2090000000         0.3980000000
   C        -2.3830000000        -3.0750000000        -0.6680000000
   H        -2.2240000000        -2.9540000000        -1.7470000000
   H        -2.0710000000        -4.0980000000        -0.4510000000
   H        -3.4600000000        -2.9510000000        -0.4570000000
   N        -2.8840000000        -0.5980000000        -2.0090000000
   N        -3.1910000000        -1.5220000000        -2.6220000000
   C        -3.2010000000         1.3080000000        -0.2400000000
   C        -3.5410000000         2.2170000000        -1.2110000000
   C        -3.8000000000         1.4750000000         1.0610000000
   C        -4.3780000000         3.3140000000        -0.9720000000
   H        -3.0080000000         2.1880000000        -2.1710000000
   C        -4.7360000000         2.4950000000         1.2690000000
   H        -3.5400000000         0.8180000000         1.9050000000
   C        -5.0250000000         3.3830000000         0.2230000000
   H        -4.4290000000         4.1420000000        -1.7120000000
   H        -5.2060000000         2.6290000000         2.2610000000
   H        -5.6540000000         4.2280000000         0.4740000000
   H         0.8500000000        -1.4160000000         1.8890000000
   H        -0.1290000000        -3.4610000000         1.1110000000
   C         2.2090000000         0.3350000000        -1.1170000000
   O         2.2310000000        -0.1360000000        -0.0370000000
   O         1.9410000000         0.8570000000        -2.1820000000
