      39
best product-like step 52
   C        -2.5860000000         0.7580000000        -0.1970000000
   C        -4.4410000000         2.1820000000         0.4190000000
   H        -5.4480000000         1.7600000000         0.3410000000
   C        -3.9090000000         2.6410000000        -0.9490000000
   H        -4.7060000000         2.8640000000        -1.6660000000
   B        -0.8360000000         0.0500000000         0.4940000000
   N        -3.1130000000         1.4130000000        -1.3590000000
   N        -3.4470000000         1.1200000000         0.7810000000
   C        -2.8770000000         1.2860000000        -2.8310000000
   H        -1.9900000000         1.8000000000        -3.2060000000
   H        -2.8810000000         0.2590000000        -3.1780000000
   H        -3.7200000000         1.7770000000        -3.3290000000
   C        -3.0200000000         0.9450000000         2.1560000000
   H        -2.1260000000         0.3350000000         2.2080000000
   H        -2.7390000000         1.9130000000         2.5850000000
   H        -3.7920000000         0.5080000000         2.7930000000
   N        -1.3600000000        -0.0520000000        -1.9220000000
   N        -0.2750000000         0.2010000000        -2.0740000000
   H        -3.2640000000         3.5260000000        -0.8820000000
   H        -4.4540000000         2.9560000000         1.1920000000
   C        -1.6590000000        -1.6080000000         0.4400000000
   C        -1.4760000000        -2.7120000000        -0.6570000000
   C        -3.1520000000        -1.8410000000         0.9580000000
   C        -0.6760000000        -1.8170000000         1.6100000000
   H        -3.2530000000        -2.8740000000         1.3120000000
   H        -3.4650000000        -1.2210000000         1.7870000000
   H        -3.8860000000        -1.7140000000         0.1510000000
   H         0.2970000000        -1.6020000000         1.2020000000
   H        -0.8220000000        -1.0270000000         2.3530000000
   H        -0.6410000000        -2.7830000000         2.1570000000
   H        -0.5240000000        -2.6300000000        -1.1680000000
   H        -1.5190000000        -3.7190000000        -0.2020000000
   H        -2.2720000000        -2.6760000000        -1.4070000000
   C         2.7950000000         0.0390000000         1.1000000000
   C         2.8980000000        -0.0130000000        -0.7450000000
   H         1.9030000000         0.3960000000        -1.0050000000
   H         3.6820000000         0.5450000000        -1.2570000000
   H         2.9520000000        -1.0250000000        -1.1550000000
   N         1.9480000000         0.1230000000         2.0350000000
