      39
best TS-like step 48
   C        -2.6220000000         0.7420000000        -0.2110000000
   C        -4.4380000000         2.1950000000         0.4170000000
   H        -5.4530000000         1.7820000000         0.3440000000
   C        -3.9070000000         2.6610000000        -0.9510000000
   H        -4.7150000000         2.8870000000        -1.6620000000
   B        -0.8830000000         0.0030000000         0.4310000000
   N        -3.1150000000         1.4370000000        -1.3620000000
   N        -3.4570000000         1.1240000000         0.7750000000
   C        -2.8720000000         1.2930000000        -2.8200000000
   H        -1.9720000000         1.7980000000        -3.1920000000
   H        -2.8670000000         0.2550000000        -3.1420000000
   H        -3.7140000000         1.7880000000        -3.3280000000
   C        -3.0270000000         0.9480000000         2.1510000000
   H        -2.1330000000         0.3380000000         2.1970000000
   H        -2.7520000000         1.9250000000         2.5760000000
   H        -3.8050000000         0.5140000000         2.7890000000
   N        -1.3220000000        -0.0440000000        -1.8360000000
   N        -0.2390000000         0.1910000000        -2.0580000000
   H        -3.2580000000         3.5490000000        -0.8870000000
   H        -4.4450000000         2.9800000000         1.1850000000
   C        -1.6920000000        -1.6220000000         0.4230000000
   C        -1.4920000000        -2.7220000000        -0.6540000000
   C        -3.1670000000        -1.8600000000         0.9580000000
   C        -0.7060000000        -1.7960000000         1.5810000000
   H        -3.2320000000        -2.8950000000         1.3280000000
   H        -3.4730000000        -1.2290000000         1.7850000000
   H        -3.9090000000        -1.7500000000         0.1490000000
   H         0.2690000000        -1.5750000000         1.1890000000
   H        -0.8440000000        -1.0080000000         2.3340000000
   H        -0.6490000000        -2.7710000000         2.1160000000
   H        -0.5350000000        -2.6370000000        -1.1560000000
   H        -1.5120000000        -3.7260000000        -0.1770000000
   H        -2.2850000000        -2.7020000000        -1.4150000000
   C         2.8420000000         0.0320000000         1.0320000000
   C         2.8280000000        -0.0150000000        -0.7180000000
   H         1.8170000000         0.3890000000        -0.8410000000
   H         3.5400000000         0.5860000000        -1.2930000000
   H         2.7990000000        -1.0290000000        -1.0920000000
   N         2.0830000000         0.1300000000         2.0590000000
