      39
final step 1000
   C        -4.1900000000         0.8160000000         1.8730000000
   C        -5.6470000000         2.1160000000         2.9920000000
   H        -6.4160000000         1.5990000000         3.5260000000
   C        -5.9330000000         2.2170000000         1.5210000000
   H        -7.0230000000         2.4970000000         1.4880000000
   B        -3.1250000000        -0.0140000000         1.3790000000
   N        -5.3500000000         0.9560000000         1.0950000000
   N        -4.3850000000         1.4390000000         3.0780000000
   C        -4.8330000000         0.9580000000        -0.1530000000
   H        -4.8650000000        -0.0500000000        -0.5910000000
   H        -5.5000000000         1.4470000000        -0.8720000000
   H        -3.8970000000         1.3980000000        -0.4600000000
   C        -3.2690000000         1.9950000000         3.9930000000
   H        -3.0610000000         1.1950000000         4.7050000000
   H        -2.4320000000         2.1450000000         3.3240000000
   H        -3.5560000000         2.7990000000         4.6650000000
   N         8.1600000000        -2.0180000000        -6.1170000000
   N         7.7910000000        -2.6730000000        -5.2870000000
   H        -5.2800000000         3.0800000000         1.2150000000
   H        -5.5910000000         3.0410000000         3.5710000000
   C        -1.7840000000        -0.8770000000         1.4690000000
   C        -0.3730000000        -0.2760000000         0.9600000000
   C        -2.3470000000        -1.9510000000         0.5240000000
   C        -1.3440000000        -1.6990000000         3.0100000000
   H        -1.4770000000        -2.3340000000        -0.0050000000
   H        -2.9590000000        -2.8010000000         0.8730000000
   H        -3.0580000000        -1.6270000000        -0.2550000000
   H        -0.6320000000        -1.2450000000         3.7220000000
   H        -2.2040000000        -2.1560000000         3.5790000000
   H        -0.6790000000        -2.4210000000         2.5130000000
   H         0.1260000000        -1.0440000000         0.2880000000
   H        -0.5290000000         0.6780000000         0.4380000000
   H         0.2110000000        -0.2410000000         1.8870000000
   C        -2.1830000000         3.1060000000        -1.4010000000
   C         3.7910000000        -2.9570000000        -8.3750000000
   H         3.7650000000        -2.3290000000        -9.2710000000
   H         2.8950000000        -3.5930000000        -8.2090000000
   H         4.6410000000        -3.2560000000        -7.7740000000
   N        -1.7630000000         2.1190000000        -1.0020000000
