      39
best bond-forming step 60
   C        -2.5200000000         0.8100000000        -0.1780000000
   C        -4.4440000000         2.1530000000         0.4200000000
   H        -5.4500000000         1.7020000000         0.3360000000
   C        -3.9110000000         2.5910000000        -0.9450000000
   H        -4.6970000000         2.8060000000        -1.6790000000
   B        -0.7980000000         0.1360000000         0.5840000000
   N        -3.1100000000         1.3720000000        -1.3520000000
   N        -3.4230000000         1.1170000000         0.7950000000
   C        -2.8980000000         1.2810000000        -2.8490000000
   H        -2.0080000000         1.8120000000        -3.2230000000
   H        -2.9320000000         0.2620000000        -3.2560000000
   H        -3.7650000000         1.7720000000        -3.3180000000
   C        -3.0090000000         0.9480000000         2.1710000000
   H        -2.1100000000         0.3180000000         2.2330000000
   H        -2.7080000000         1.9130000000         2.6150000000
   H        -3.7870000000         0.4900000000         2.8040000000
   N        -1.4250000000        -0.0820000000        -2.1030000000
   N        -0.3510000000         0.2190000000        -2.1040000000
   H        -3.2600000000         3.4860000000        -0.8650000000
   H        -4.4670000000         2.9250000000         1.2060000000
   C        -1.5920000000        -1.5870000000         0.4870000000
   C        -1.4420000000        -2.6850000000        -0.6570000000
   C        -3.1140000000        -1.8040000000         0.9520000000
   C        -0.6160000000        -1.8680000000         1.6700000000
   H        -3.2780000000        -2.8530000000         1.2750000000
   H        -3.4440000000        -1.2040000000         1.8010000000
   H        -3.8320000000        -1.6310000000         0.1470000000
   H         0.4140000000        -1.6850000000         1.2530000000
   H        -0.7670000000        -1.0730000000         2.4240000000
   H        -0.6500000000        -2.8270000000         2.2180000000
   H        -0.4750000000        -2.6140000000        -1.2020000000
   H        -1.5270000000        -3.6970000000        -0.2400000000
   H        -2.2480000000        -2.6050000000        -1.3980000000
   C         2.6570000000         0.0580000000         1.2420000000
   C         3.0480000000        -0.0100000000        -0.7790000000
   H         2.1360000000         0.3990000000        -1.2810000000
   H         3.9910000000         0.5120000000        -1.0960000000
   H         3.2440000000        -1.0390000000        -1.1850000000
   N         1.7340000000         0.1060000000         1.9610000000
