      36
Step =        0, E =      0.00000000
   C        -3.2600141230        -0.2358692594         0.6449400896
   C        -3.0707814880        -1.5927020862         2.5451113114
   H        -2.8083709594        -2.6505582840         2.3690290036
   C        -4.5518821830        -1.3171137683         2.2714129726
   H        -5.1547518981        -2.2369181810         2.2510775993
   B        -2.9175180678         0.6310422505        -0.5491070069
   N        -4.5077675067        -0.7048625901         0.9547542332
   N        -2.3916602555        -0.7195903260         1.5969070922
   C        -5.6477107337        -0.7154090651         0.0763061026
   H        -6.2674881871         0.1951094358         0.1547291784
   H        -5.2976337335        -0.7970699959        -0.9637994504
   H        -6.2777560593        -1.5862220015         0.3124674532
   C        -1.1846186000        -0.0427578894         2.0029802279
   H        -0.9912540921         0.7899065813         1.3181814803
   H        -1.2913946236         0.3690431223         3.0235292538
   H        -0.3144767428        -0.7191439681         1.9936791023
   N        -4.0140088976         1.4684549751        -0.9023432393
   N        -4.8516620828         2.1913657787        -1.1688157247
   H        -4.9959670664        -0.6356970303         3.0205232508
   H        -2.7818760803        -1.3405779751         3.5763657963
   C        -1.6014277245         0.7206932971        -1.4967799231
   C        -2.0634704807         0.8007203114        -2.9661497791
   C        -0.7387865563        -0.5454361226        -1.3618958717
   C        -0.7370923062         1.9636295982        -1.2145114017
   H         0.1027662937        -0.5168822798        -2.0768807893
   H        -0.3050736386        -0.6589839988        -0.3578996384
   H        -1.3282512246        -1.4524230439        -1.5719031662
   H        -1.3262608319         2.8889325648        -1.3193336055
   H        -0.3163283404         1.9581686565        -0.1961010259
   H         0.1137036014         2.0271361795        -1.9175573841
   H        -2.6836929892         1.6919011879        -3.1552070177
   H        -1.1947143516         0.8561472080        -3.6461975104
   H        -2.6570174880        -0.0840332816        -3.2475116133
   C         2.6458860429         0.0000000000         0.0000000000
   O         3.2800317154        -0.0830637692        -0.9708343735
   O         2.0117403705         0.0830637692         0.9708343735
