      36
Step =        0, E =     -7.61602491
   C        -3.6087186172        -0.3188600931        -0.7829304857
   C        -3.0611389749        -0.6586355351        -3.0372513771
   H        -3.7629254933        -0.1920157960        -3.7503110083
   C        -3.6216538975        -1.9649068507        -2.4535389352
   H        -4.4225560994        -2.3943366655        -3.0679694236
   B        -3.8027449709         0.3877748758         0.5831305171
   N        -4.1291835252        -1.5546040239        -1.1320721548
   N        -2.8910986564         0.1618139118        -1.8375713000
   C        -4.2493723439        -2.6237444957        -0.1443534778
   H        -5.1159015087        -3.2574481910        -0.3689547281
   H        -3.3380827377        -3.2452396432        -0.1308175174
   H        -4.3752996832        -2.1980364950         0.8532194934
   C        -2.1826468915         1.4282055838        -1.8682208956
   H        -1.2858358637         1.3881479410        -1.2374497642
   H        -1.8739580318         1.6239740533        -2.9000923939
   H        -2.8104777616         2.2613092552        -1.5268577485
   N        -2.5695270353         0.8987124289         1.0311621444
   N        -1.5561786284         1.3124671043         1.4064573793
   H        -2.8251335671        -2.7196297019        -2.3460834311
   H        -2.1036323122        -0.8097434023        -3.5511286266
   C        -5.1066097503         0.6666849517         1.5181708526
   C        -5.0430217858        -0.1575586058         2.8236538408
   C        -6.4362742855         0.3736488191         0.7955086277
   C        -5.0920064244         2.1663709650         1.9008003027
   H        -7.2761397715         0.6061475591         1.4700634299
   H        -6.5591141047         0.9898391976        -0.1052592615
   H        -6.5371633538        -0.6783323039         0.5003198752
   H        -4.1826265575         2.4386524246         2.4511336035
   H        -5.1522112529         2.8099047971         1.0125889030
   H        -5.9520649100         2.4075376211         2.5444929148
   H        -4.0645191960        -0.0652167524         3.3127792948
   H        -5.8081846011         0.1909358680         3.5355341912
   H        -5.2285017918        -1.2245289605         2.6430134219
   C         0.7666713371        -1.0349532930         0.9247973923
   O         1.6131946129        -0.7064592422         1.6641049884
   O        -0.0637257330        -1.3925700455         0.1696745415
