      36
Step =        0, E =     -7.60698002
   C        -4.3607448455         0.9228452731        -0.2250878274
   C        -6.0796784202         2.4753151922         0.1157285005
   H        -7.1759934960         2.4692677713         0.1384553767
   C        -5.4957031323         2.6437195387        -1.2883745049
   H        -6.1457403344         2.1600322846        -2.0317650522
   B        -3.3697778046        -0.2269470453         0.0878611697
   N        -4.2137667910         1.9035861206        -1.2141912029
   N        -5.5383260276         1.1572571194         0.4427120009
   C        -2.9789262961         2.7094519612        -1.1985294404
   H        -2.1443932272         2.1677409886        -1.6529146173
   H        -3.1571158140         3.6227739779        -1.7776349860
   H        -2.6894586726         3.0040490513        -0.1758315672
   C        -6.0075754600         0.4493953267         1.6156665585
   H        -5.7042382035        -0.5995366801         1.5711824206
   H        -5.6070741029         0.8866758928         2.5441703664
   H        -7.1028451883         0.4893681002         1.6448065230
   N        -3.1400067221        -0.2594655790         1.4826757203
   N        -2.9951870595        -0.2842696173         2.6274882768
   H        -5.3451123121         3.6858104513        -1.5832740394
   H        -5.7119853764         3.2485952867         0.8142267913
   C        -2.7996291815        -1.4279463316        -0.8471185130
   C        -1.4381466835        -1.1263202039        -1.5079074219
   C        -3.8375269318        -1.7249412372        -1.9512866546
   C        -2.6303335316        -2.6892123107         0.0304060097
   H        -3.5265092814        -2.6066966816        -2.5329776742
   H        -4.8282359321        -1.9398021255        -1.5281801861
   H        -3.9444540663        -0.8830605038        -2.6482805453
   H        -1.8501871330        -2.5521649290         0.7909447234
   H        -3.5594718445        -2.9558100361         0.5523541369
   H        -2.3370407664        -3.5537279130        -0.5844139964
   H        -0.6427512955        -1.0143738878        -0.7595143881
   H        -1.1495118868        -1.9617450545        -2.1676246992
   H        -1.4591152735        -0.2148767763        -2.1185864767
   C         0.5203105437        -0.8952217495         2.1283201031
   O         0.2069621173         0.2307754798         2.1951639512
   O         0.8519246649        -2.0244014676         2.0595191278
