      36
final step 2000
   C        -2.1800000000         0.8800000000         0.0120000000
   C        -3.9450000000         1.8520000000         1.2550000000
   H        -4.8620000000         1.2480000000         1.3940000000
   C        -3.6470000000         2.6580000000        -0.0120000000
   H        -4.5350000000         2.6560000000        -0.4500000000
   B        -1.1230000000        -0.0670000000        -0.4240000000
   N        -2.6650000000         1.9220000000        -0.6480000000
   N        -2.8510000000         0.8270000000         1.3560000000
   C        -2.2500000000         2.4390000000        -1.9360000000
   H        -1.6310000000         3.1690000000        -1.7570000000
   H        -1.8040000000         1.4740000000        -2.4480000000
   H        -3.0750000000         2.5240000000        -2.3890000000
   C        -2.7730000000        -0.1930000000         2.3210000000
   H        -2.1110000000        -1.1310000000         1.7920000000
   H        -2.3840000000         0.4200000000         3.1480000000
   H        -3.9460000000        -0.6320000000         2.5990000000
   N        -1.4220000000        -0.3230000000        -2.1740000000
   N        -1.4400000000        -1.5740000000        -2.2180000000
   H        -3.0820000000         3.7320000000         0.3670000000
   H        -3.7290000000         2.3660000000         2.3290000000
   C         0.4040000000         0.2510000000         0.0840000000
   C         1.5710000000        -0.5560000000        -0.4170000000
   C         0.6760000000         1.8180000000        -0.4800000000
   C         0.2980000000         0.3710000000         1.6250000000
   H         0.6090000000         1.6630000000        -1.7070000000
   H         0.0030000000         2.4600000000        -0.2030000000
   H         1.7630000000         2.1520000000        -0.2900000000
   H        -0.3620000000         1.0950000000         2.0120000000
   H         0.2310000000        -0.6630000000         2.1080000000
   H         1.2650000000         0.8910000000         1.6400000000
   H         2.3600000000        -0.2670000000        -0.2670000000
   H         1.2690000000        -1.7490000000        -0.1520000000
   H         1.4000000000        -0.6240000000        -1.6200000000
   C        -1.6230000000        -2.2380000000        -1.0880000000
   O        -1.3730000000        -1.6950000000         0.1510000000
   O        -1.7520000000        -3.6590000000        -0.8090000000
