      36
best TS-like step 279
   C        -2.5940000000         1.0440000000        -0.2450000000
   C        -4.1420000000         2.4030000000         0.8810000000
   H        -5.1440000000         1.9950000000         1.0490000000
   C        -4.0060000000         2.8560000000        -0.5580000000
   H        -4.9420000000         3.1040000000        -1.0440000000
   B        -1.2200000000         0.3590000000        -0.6980000000
   N        -3.4070000000         1.6590000000        -1.1570000000
   N        -3.1460000000         1.3240000000         1.0260000000
   C        -3.1190000000         1.6780000000        -2.5660000000
   H        -2.3140000000         2.3680000000        -2.7980000000
   H        -2.8430000000         0.6960000000        -2.9350000000
   H        -4.0090000000         1.9850000000        -3.1310000000
   C        -3.5280000000         0.3870000000         2.1430000000
   H        -3.3370000000        -0.6430000000         1.9260000000
   H        -3.0270000000         0.6500000000         3.0670000000
   H        -4.6140000000         0.4610000000         2.2860000000
   N        -1.2330000000        -0.2780000000        -2.0630000000
   N        -1.1000000000        -0.9680000000        -2.9500000000
   H        -3.3190000000         3.6960000000        -0.6560000000
   H        -3.9420000000         3.1890000000         1.6130000000
   C        -0.5850000000        -0.8720000000         0.4160000000
   C         0.1590000000        -2.5240000000         0.2150000000
   C        -1.7730000000        -1.5190000000        -0.2010000000
   C        -0.9270000000        -0.2870000000         1.8490000000
   H        -2.1220000000        -2.3530000000         0.3670000000
   H        -2.6370000000        -0.8750000000        -0.3180000000
   H        -1.4130000000        -1.8990000000        -1.1560000000
   H        -1.6530000000         0.4550000000         1.6470000000
   H        -1.2610000000        -1.0710000000         2.5370000000
   H        -0.0650000000         0.2450000000         2.2710000000
   H         0.9710000000        -2.4940000000         0.9310000000
   H        -0.4740000000        -3.3970000000         0.3760000000
   H         0.6090000000        -2.5570000000        -0.7780000000
   C         1.3740000000        -0.8280000000         0.1600000000
   O         1.5090000000        -0.5960000000         1.3110000000
   O         1.5790000000        -1.0230000000        -1.0010000000
