      36
Step =        0, E =     -7.61208345
   C        -3.9459098895         0.3884114055        -0.5520786741
   C        -3.7207500997         2.3104167612         0.7472039755
   H        -3.9775439152         2.6176792393         1.7672949570
   C        -4.8619187353         2.4824425546        -0.2495613945
   H        -5.8340412049         2.2587935337         0.2309183688
   B        -3.8416434593        -1.0605638209        -1.0842495205
   N        -4.5264561403         1.4441421790        -1.2359751938
   N        -3.5080016164         0.8595608075         0.6610067815
   C        -5.4686130998         1.2279626710        -2.3267708124
   H        -4.9787253313         0.7417671504        -3.1748321543
   H        -6.3340892655         0.6180460357        -2.0189048868
   H        -5.8289238203         2.2063106721        -2.6619250905
   C        -2.4238882110         0.2699150937         1.4324986528
   H        -1.5065431330         0.8726710861         1.3362570442
   H        -2.7024433107         0.2027901084         2.4922281057
   H        -2.2096848004        -0.7361590727         1.0639804650
   N        -3.4055078137        -1.0189225175        -2.4239481229
   N        -3.0799813693        -0.9418135398        -3.5296094901
   H        -4.9106340185         3.4737736690        -0.7100491112
   H        -2.8187392570         2.8609042580         0.4252204077
   C        -4.3620119220        -2.4497355000        -0.4173185002
   C        -5.2546428434        -3.1701474004        -1.4570011642
   C        -5.2186547180        -2.1099836343         0.8193879614
   C        -3.2315355625        -3.4188247076        -0.0097383607
   H        -5.7405255371        -3.0077858911         1.1832521930
   H        -4.6098200858        -1.7227779043         1.6462271029
   H        -5.9798752639        -1.3528731695         0.5873888905
   H        -2.6097698138        -3.7042065020        -0.8689621811
   H        -2.5732681761        -2.9895333453         0.7567300840
   H        -3.6643837177        -4.3419246669         0.4091367469
   H        -4.7258292041        -3.3404798575        -2.4039688293
   H        -5.5742733750        -4.1521163474        -1.0749666458
   H        -6.1610093397        -2.5912424497        -1.6802658217
   C         1.6515307425         2.4732170880         1.9631559017
   O         0.8127742111         2.6881518620         1.1705080674
   O         2.4935001516         2.2594047098         2.7560870774
