      37
best product-like step 3768
   C        -1.0430000000         0.3980000000        -0.1300000000
   C         0.9510000000         1.0840000000         0.8980000000
   H         0.9750000000         2.1810000000         1.1070000000
   C         1.1990000000         0.8890000000        -0.6080000000
   H         1.7500000000         1.7210000000        -1.0610000000
   B        -2.4830000000        -0.0370000000        -0.3210000000
   N        -0.1790000000         0.8500000000        -1.1730000000
   N        -0.3220000000         0.4020000000         1.0570000000
   C        -0.2840000000         0.8030000000        -2.7260000000
   H        -1.1190000000         1.3990000000        -3.0700000000
   H         0.6850000000         1.1670000000        -3.0710000000
   H        -0.3640000000        -0.2430000000        -3.0700000000
   C        -0.9900000000         0.5520000000         2.3380000000
   H        -0.4550000000         1.3840000000         2.8190000000
   H        -2.0370000000         0.8690000000         2.2610000000
   H        -0.9290000000        -0.3500000000         2.9550000000
   N        -3.2630000000        -0.5580000000         0.7170000000
   N        -3.9130000000        -0.8450000000         1.6320000000
   H         1.7800000000        -0.0330000000        -0.8420000000
   H         1.7240000000         0.6280000000         1.5160000000
   C        -3.4660000000         0.6820000000        -1.4010000000
   C        -3.3790000000        -0.0510000000        -2.7350000000
   C        -3.0380000000         2.1550000000        -1.4560000000
   C        -4.9390000000         0.5450000000        -1.0480000000
   H        -3.3610000000         2.7250000000        -0.5810000000
   H        -1.9600000000         2.2710000000        -1.4960000000
   H        -3.4940000000         2.5610000000        -2.3690000000
   H        -5.3010000000        -0.4900000000        -1.1230000000
   H        -5.1620000000         0.9190000000        -0.0390000000
   H        -5.5200000000         1.0620000000        -1.8220000000
   H        -3.2160000000        -1.1380000000        -2.6840000000
   H        -4.3040000000         0.0120000000        -3.3380000000
   H        -2.6480000000         0.3430000000        -3.4330000000
   C        -1.1100000000        -2.3780000000         0.1190000000
   H        -1.6610000000        -2.8960000000        -0.6950000000
   H        -0.1440000000        -1.9350000000        -0.1920000000
   O        -1.4780000000        -2.4500000000         1.2680000000
