      37
final step 5000
   C        -1.5910000000         0.9150000000         0.2720000000
   C        -0.0880000000         2.4840000000         0.9860000000
   H        -0.3290000000         3.1390000000         1.8210000000
   C        -0.7470000000         3.0180000000        -0.2880000000
   H        -1.0700000000         4.0600000000        -0.1300000000
   B        -2.1440000000        -0.4930000000         0.0140000000
   N        -1.7980000000         2.0710000000        -0.4840000000
   N        -0.7670000000         1.2470000000         1.2720000000
   C        -2.4850000000         2.1440000000        -1.7670000000
   H        -3.5510000000         1.9620000000        -1.6260000000
   H        -2.3530000000         3.1620000000        -2.1650000000
   H        -2.0710000000         1.4410000000        -2.5120000000
   C        -0.3270000000         0.3070000000         2.3560000000
   H         0.4470000000        -0.3890000000         2.0040000000
   H         0.0880000000         0.8860000000         3.1870000000
   H        -1.1860000000        -0.2930000000         2.6550000000
   N        -0.9840000000        -1.3320000000         0.1050000000
   N        -0.0130000000        -1.8900000000         0.2550000000
   H        -0.0490000000         3.0680000000        -1.1380000000
   H         0.9900000000         2.3360000000         0.8750000000
   C        -3.6750000000        -1.0200000000        -0.1360000000
   C        -4.0910000000        -1.9950000000        -1.2570000000
   C        -4.7720000000         0.0490000000        -0.2810000000
   C        -3.9920000000        -1.6460000000         1.2470000000
   H        -4.5020000000         1.0860000000        -0.0820000000
   H        -5.2150000000         0.1360000000        -1.2790000000
   H        -5.6060000000        -0.1550000000         0.3900000000
   H        -3.2060000000        -2.3420000000         1.5980000000
   H        -4.0750000000        -0.8080000000         1.9750000000
   H        -4.9660000000        -2.1270000000         1.3230000000
   H        -3.5790000000        -2.9670000000        -1.2640000000
   H        -5.1890000000        -2.1610000000        -1.1510000000
   H        -4.0080000000        -1.4720000000        -2.2040000000
   C        -0.1030000000        -1.5000000000        -3.0860000000
   H         0.7810000000        -1.9910000000        -3.5110000000
   H        -1.1300000000        -1.9250000000        -3.2380000000
   O        -0.0320000000        -0.4430000000        -2.4770000000
