      37
best TS-like step 4099
   C        -1.2130000000         0.7890000000         0.1040000000
   C         0.7020000000         1.7600000000         1.0450000000
   H         0.3270000000         2.7700000000         1.2710000000
   C         0.8700000000         1.6620000000        -0.4180000000
   H         1.3260000000         2.5340000000        -0.8960000000
   B        -2.5120000000         0.0240000000        -0.1060000000
   N        -0.5660000000         1.6240000000        -0.8580000000
   N        -0.3520000000         0.7810000000         1.2080000000
   C        -0.5250000000         1.5520000000        -2.3570000000
   H        -1.5410000000         1.7290000000        -2.6730000000
   H         0.0750000000         2.3850000000        -2.7110000000
   H        -0.1290000000         0.5880000000        -2.6990000000
   C        -0.4040000000         0.1240000000         2.4830000000
   H         0.1110000000         0.7330000000         3.2370000000
   H        -1.4210000000        -0.0740000000         2.8130000000
   H         0.1270000000        -0.8390000000         2.4230000000
   N        -2.7350000000        -0.7720000000         1.0030000000
   N        -3.0580000000        -1.4750000000         1.8810000000
   H         1.3900000000         0.7620000000        -0.7720000000
   H         1.5800000000         1.5860000000         1.6500000000
   C        -3.8220000000         0.1500000000        -1.2080000000
   C        -3.6930000000        -0.8420000000        -2.4460000000
   C        -3.8200000000         1.6700000000        -1.6500000000
   C        -5.1430000000        -0.2640000000        -0.3940000000
   H        -4.3030000000         2.3380000000        -0.9330000000
   H        -2.8380000000         2.1100000000        -1.7950000000
   H        -4.4020000000         1.7950000000        -2.5760000000
   H        -5.1370000000        -1.3710000000        -0.2480000000
   H        -5.1130000000         0.1660000000         0.6210000000
   H        -6.0940000000        -0.0800000000        -0.8900000000
   H        -3.7630000000        -1.8490000000        -2.0290000000
   H        -4.5370000000        -0.7010000000        -3.1660000000
   H        -2.7320000000        -0.6640000000        -2.9570000000
   C        -1.1330000000        -2.7800000000        -0.6970000000
   H        -1.5800000000        -2.8900000000         0.3280000000
   H        -1.3560000000        -3.5970000000        -1.4340000000
   O        -0.4090000000        -1.8200000000        -0.9660000000
