      37
best bond-forming step 458
   C        -2.6080000000         0.0550000000         0.2990000000
   C        -3.6750000000         1.5410000000         1.6870000000
   H        -4.2830000000         1.6510000000         2.5850000000
   C        -4.5300000000         1.4390000000         0.4490000000
   H        -5.4560000000         0.8760000000         0.6280000000
   B        -1.2630000000        -0.3750000000        -0.4050000000
   N        -3.6760000000         0.5900000000        -0.4140000000
   N        -2.9070000000         0.2530000000         1.6360000000
   C        -3.9780000000         0.8170000000        -1.8330000000
   H        -3.9160000000        -0.1230000000        -2.3980000000
   H        -5.0370000000         1.0840000000        -1.8680000000
   H        -3.3470000000         1.5720000000        -2.3120000000
   C        -2.4010000000        -0.4020000000         2.8760000000
   H        -3.0060000000        -1.2650000000         3.1920000000
   H        -1.3700000000        -0.7280000000         2.7280000000
   H        -2.4060000000         0.3160000000         3.7000000000
   N        -0.9950000000         0.4110000000        -1.6380000000
   N        -0.4590000000         1.1390000000        -2.3480000000
   H        -4.7490000000         2.4220000000         0.0260000000
   H        -2.9740000000         2.3890000000         1.6390000000
   C        -0.4450000000        -1.7280000000        -0.5550000000
   C         0.3350000000        -1.6480000000        -1.9850000000
   C        -1.6830000000        -2.6070000000        -0.8670000000
   C         0.6700000000        -2.0370000000         0.6520000000
   H        -1.4960000000        -3.6530000000        -1.1430000000
   H        -2.4170000000        -2.5660000000        -0.0390000000
   H        -2.1620000000        -2.1710000000        -1.7570000000
   H         1.6620000000        -1.8270000000         0.2580000000
   H         0.4350000000        -1.4740000000         1.5700000000
   H         0.6610000000        -3.0920000000         0.9400000000
   H         1.0100000000        -0.7860000000        -1.9590000000
   H         0.8790000000        -2.5980000000        -2.0380000000
   H        -0.2710000000        -1.6940000000        -2.9040000000
   C         0.4670000000         2.3200000000        -0.8990000000
   H         0.5330000000         3.1410000000        -1.6760000000
   H         1.4540000000         2.1100000000        -0.4300000000
   O        -0.5810000000         1.9220000000        -0.3060000000
