      37
best product-like step 764
   C        -2.2300000000         0.0120000000         0.2870000000
   C        -2.7860000000         0.8790000000         2.2900000000
   H        -3.2580000000         0.7920000000         3.2760000000
   C        -3.9030000000         1.2380000000         1.1870000000
   H        -4.8980000000         1.2020000000         1.6590000000
   B        -1.0890000000        -0.1730000000        -0.7530000000
   N        -3.6950000000         0.2430000000         0.0870000000
   N        -2.0520000000        -0.3280000000         1.7180000000
   C        -4.4060000000         0.6130000000        -1.2290000000
   H        -3.7540000000         0.6050000000        -2.0990000000
   H        -5.1960000000        -0.1370000000        -1.4070000000
   H        -4.8900000000         1.5980000000        -1.1630000000
   C        -2.6810000000        -1.7110000000         2.0720000000
   H        -2.9120000000        -1.8030000000         3.1420000000
   H        -3.5870000000        -1.9130000000         1.4700000000
   H        -1.9220000000        -2.4600000000         1.8250000000
   N        -1.5360000000         0.2240000000        -2.1530000000
   N        -1.7620000000         1.1650000000        -2.7950000000
   H        -3.8060000000         2.2650000000         0.8050000000
   H        -2.0200000000         1.6710000000         2.3100000000
   C         0.2050000000        -1.1310000000        -0.7270000000
   C         0.9870000000        -0.7710000000        -2.0080000000
   C        -0.6080000000        -2.5730000000        -0.8500000000
   C         1.1760000000        -1.1140000000         0.5100000000
   H         0.0650000000        -3.4480000000        -0.8420000000
   H        -1.3280000000        -2.7700000000        -0.0490000000
   H        -1.1940000000        -2.6410000000        -1.7840000000
   H         0.6160000000        -1.6060000000         1.3260000000
   H         2.0840000000        -1.7500000000         0.3500000000
   H         1.4710000000        -0.1190000000         0.8870000000
   H         1.6600000000         0.0390000000        -1.7020000000
   H         1.6810000000        -1.5670000000        -2.2730000000
   H         0.4340000000        -0.3540000000        -2.8530000000
   C        -1.8300000000         2.8100000000        -1.1820000000
   H        -2.9300000000         2.9440000000        -1.1610000000
   H        -1.2670000000         3.3970000000        -1.9330000000
   O        -1.2280000000         2.3380000000        -0.2000000000
