      37
final step 1000
   C        -2.2570000000        -0.4140000000         0.2520000000
   C        -2.5300000000         0.2550000000         2.3200000000
   H        -2.8390000000        -0.0880000000         3.3180000000
   C        -3.7860000000         0.7230000000         1.4040000000
   H        -4.6990000000         0.5530000000         1.9810000000
   B        -1.2490000000        -0.0950000000        -0.8190000000
   N        -3.7130000000         0.0540000000         0.1290000000
   N        -1.7630000000        -0.7990000000         1.5830000000
   C        -4.9840000000        -0.7090000000        -0.2730000000
   H        -5.4490000000        -1.2460000000         0.5760000000
   H        -5.6600000000         0.0810000000        -0.6450000000
   H        -4.8420000000        -1.3900000000        -1.1170000000
   C        -2.2860000000        -2.1940000000         2.0710000000
   H        -1.4690000000        -2.9290000000         2.1000000000
   H        -2.8210000000        -2.1540000000         3.0260000000
   H        -2.9910000000        -2.5800000000         1.3260000000
   N        -1.9190000000         0.2850000000        -2.1880000000
   N        -2.6380000000         0.6620000000        -3.0470000000
   H        -3.7740000000         1.8090000000         1.1800000000
   H        -1.8250000000         1.0900000000         2.4330000000
   C         0.3340000000        -0.4260000000        -0.8810000000
   C         0.8480000000         0.2330000000        -2.1920000000
   C         0.3510000000        -2.0630000000        -0.9980000000
   C         1.2480000000         0.2560000000         0.3080000000
   H         1.2890000000        -2.4980000000        -1.4080000000
   H         0.1280000000        -2.4850000000        -0.0110000000
   H        -0.5290000000        -2.4120000000        -1.5550000000
   H         1.3280000000        -0.4890000000         1.1140000000
   H         2.2690000000         0.3900000000        -0.0950000000
   H         0.8850000000         1.2250000000         0.6390000000
   H         1.6860000000        -0.2790000000        -2.7260000000
   H         0.0840000000         0.2450000000        -2.9800000000
   H         1.1600000000         1.2580000000        -1.9270000000
   C        -1.4780000000         3.5520000000        -0.7880000000
   H        -1.2020000000         4.1830000000         0.0880000000
   H        -1.5700000000         4.0920000000        -1.7430000000
   O        -1.6670000000         2.3760000000        -0.7160000000
