17
TS12; E = 0.0 Ha
O       1.51194443    -2.01012042    -0.77291229
O      -1.57043754    -1.99984784    -2.78962974
O       2.41788904    -0.61360959    -2.96158732
C       0.65043410    -1.65563492    -1.79611454
C      -0.75391414    -2.17314919    -1.64530989
C       1.10903732    -0.94165287    -2.82446460
H       2.64513524     0.39367935    -3.26872699
H      -1.25710530    -1.65078873    -0.82813332
H      -0.70186133    -3.23308182    -1.36286388
H       0.41751013    -0.66273208    -3.61429211
H       1.02249874    -2.45495574    -0.07183650
Ca      4.40987319     0.68822969    -1.39042547
O       3.42488704     1.54446432    -3.33874951
H       2.96533895     2.37826669    -3.45485148
H      -1.22341650    -2.56897543    -3.48683448
O       3.93906475     2.18803849     0.07865403
H       4.06604508     2.83640326     0.76858576
