18
TS25; E = 0.0 Ha
O      -1.03013337     1.76851252    -2.04936021
O       1.63390700    -0.75730613    -1.84664710
O      -0.87241098    -1.77961600    -1.62951958
O      -3.59093118    -1.39332561    -1.72624715
C      -0.40074236     0.57862273    -1.60565731
C       0.87414472     0.30092381    -2.40528961
C      -1.36018202    -0.59776670    -1.72140933
C      -2.78340517    -0.40525862    -1.78270887
H      -0.13574415     0.64873148    -0.54388326
H       0.58720961     0.08374990    -3.44250034
H       1.49460490     1.19855813    -2.40440123
H      -2.02428426    -0.28732416    -2.93380583
H      -3.13946046     0.62806506    -1.75882422
H      -0.54429925     2.51774604    -1.68590226
Ca     -2.55412873    -3.55556767    -1.36003981
O      -2.83152355    -5.60730660    -0.77977841
H      -2.90469862    -6.51189826    -0.48606286
H       0.97837637    -1.46786364    -1.71243350
