21
TS26; E = 0.0 Ha
O       0.79435573     1.57856191    -2.23772106
O       2.12008262    -1.70488574    -1.73098804
O      -0.73481678    -1.69948020    -2.86037144
O      -1.93006161     1.37443149    -1.65922156
C       0.63031509     0.17744981    -2.01454383
C       1.90924379    -0.51734380    -2.46072420
C      -0.60387967    -0.32191474    -2.78486768
C      -1.86629282     0.29687331    -2.21192945
H       0.49536796    -0.02698057    -0.94475797
H       1.85871261    -0.71920670    -3.53710347
H       2.72828030     0.19526722    -2.29548585
H      -0.51014907     0.10503066    -3.79952328
H      -2.77035936    -0.33090934    -2.32390605
H      -0.03372729     1.99126329    -1.95068757
Ca      0.70013787    -4.09706671    -2.24312219
O       2.76383421    -3.67477835    -3.12546043
H       3.61711285    -4.09505613    -2.99795601
H       2.58020291    -2.39783519    -2.32831110
O      -0.77838867    -2.89545521    -0.78380841
H      -0.84506091    -2.17669571    -1.80427207
H      -1.65698166    -3.23766845    -0.59490368
