21
TS22; E = 0.0 Ha
O      -1.17347432    -0.16025654     1.38307539
O       1.38433670    -0.76410865    -1.19728793
O      -2.12095107    -0.22922457    -1.26574691
O      -1.33450683    -3.70246170    -0.41765496
C      -0.52824805    -0.93847644     0.35630831
C       0.64352230    -0.11914114    -0.19651616
C      -1.51719790    -1.34570990    -0.68372606
C      -1.83430873    -2.60188994    -1.00252112
H      -0.14943237    -1.84379207     0.82654169
H       0.23563907     0.80358537    -0.62455927
H       1.26341156     0.16837244     0.66428432
H      -2.58563236    -2.74991228    -1.78784789
H      -2.93966933    -0.49542797    -1.69992869
H      -1.74900267     0.46367456     0.92090621
H      -0.61234010    -4.26817103    -1.12100107
Ca      2.43821453    -4.51870977    -2.33805671
O       0.17589699    -4.92425263    -1.86725920
H      -0.38041676    -5.46815794    -2.43100643
O       2.56790965    -3.01514830    -0.63722072
H       3.15863399    -2.95090600     0.11592131
H       1.80074833    -1.63012990    -0.86473024
