18
TS18; E = 0.0 Ha
O       0.58743700    -2.28548800     1.16399600
O       1.76294900    -0.13775500    -0.62950600
O      -1.39421200    -1.89645500    -0.71462700
O      -3.29935200    -0.13980200    -0.60601800
C      -0.25342600    -1.14684400     1.19212900
C       1.67717300     0.03379600     0.57535900
C      -1.23455200    -1.05923700     0.23452300
C      -2.20573500     0.12529000     0.25855900
H      -0.46429400    -0.71888600     2.16553700
H       1.13273300     0.86058800     1.05530500
H       2.31002900    -0.55817100     1.26076500
H      -1.68870300     1.03866700    -0.06179100
H      -2.56666500     0.28348500     1.27745400
H       0.10334500    -2.91953900     0.62251800
H      -3.04672300    -0.99420300    -1.01016300
Ca      0.96247900    -4.97996600    -1.92218600
O      -1.09128600    -5.73729600    -2.18350500
H      -1.88351300    -6.01384500    -2.64201900
