13
TS3; E = 0.0 Ha
O       0.23354303     0.82134589    -0.19744778
O       0.31944319     0.12405995     2.45215215
C      -0.26073164    -0.40910118     0.19378876
C      -0.16242826    -0.66520457     1.66611357
H       0.23966513    -1.26504407    -0.29184183
H      -1.32474359    -0.51587785    -0.06092612
H      -0.55882630    -1.62927106     2.02282807
H       1.34551830     0.83444663    -0.04565244
O       2.53849600     1.04650146     0.43458832
H       3.16344330     1.27521296    -0.25740303
Ca      1.21048287     2.42922855     1.81910514
O       0.76628782     4.37520892     2.59092013
H       0.67890268     5.26477128     2.92419811
