14
TS15; E = 0.0 Ha
O       0.35586207    -1.38646291    -1.70734050
O      -0.56959938     1.34119582     0.40547692
O       2.77903256    -0.92068780    -0.47641889
C       0.45830067    -0.52617918    -0.76755095
C      -0.81759576     0.08253423    -0.20521403
C       1.72454813    -0.29809229    -0.12227481
H       1.19860050     0.62582429    -1.04363535
H      -1.22740223    -0.62792473     0.52130375
H      -1.52487815     0.16481738    -1.03440022
H       1.71589387     0.37387188     0.74324862
Ca      2.44713142    -2.38499672    -2.40845540
H      -1.37745517     1.62337781     0.84901004
O       2.41489622    -4.32504935    -1.47520547
H       2.28456042    -5.09424711    -0.92448649
