21
TS27; E = 0.0 Ha
O       3.01092664     1.26028840    -0.44267034
O       1.36160695    -0.75307113    -2.97722989
O       2.83264586    -2.30397844    -1.20869170
O       0.73903350     2.52201411    -1.74681764
C       2.40691410     0.11985958    -0.96182701
C       1.80343848     0.44574424    -2.34940299
C       3.42707156    -1.02003389    -1.08306836
C       0.64521344     1.39366401    -2.17938563
H       1.59933649    -0.24247489    -0.30594138
H       2.58501938     0.93719290    -2.93432460
H       4.01569391    -1.02377270    -0.16530430
H       4.10322732    -0.81236028    -1.92132052
H      -0.34028751     0.97630605    -2.45509671
H       1.48114867    -0.67578395    -3.93094292
H       2.24530492    -2.24470802    -1.97505098
Ca      2.29262280     3.91858600    -0.22142915
O       2.63709664     5.62800641    -1.47652613
H       3.02414792     6.47822938    -1.67605944
O       1.77078278     2.23927337     1.35746691
H       2.46293280     1.57743066     0.48560247
H       2.15795597     2.15798014     2.23276542
