21
TS23; E = 0.0 Ha
O      -1.65306003    -0.49945277    -0.02996999
O       1.69497185    -0.91642852     1.31457444
O       0.60227555    -2.31365698    -1.51800999
O      -2.54871876    -3.22182881    -0.15913728
C      -0.56209510    -1.30144135     0.46934028
C       0.61642098    -0.34651666     0.62200608
C      -0.29749212    -2.50906048    -0.41405885
C      -1.48634647    -3.23157158    -0.78544183
H      -0.82941015    -1.66259862     1.46966253
H       0.92197887     0.01118379    -0.36780216
H       0.23579838     0.52015051     1.17525847
H      -1.38563238    -3.88193382    -1.67714789
H       0.31454299    -1.56663449    -2.05382332
H      -2.41320678    -1.09747545    -0.05289383
H       0.45681558    -3.44564828     0.19147490
Ca      2.86002997    -3.62282445    -1.37433992
O       1.42287764    -4.26785377     0.40862270
H       0.99611734    -5.12947347     0.45922302
O       3.46049099    -1.68650663    -0.40302810
H       4.26094629    -1.18643980    -0.23540728
H       2.38200710    -1.23679293     0.63570788
