21
TS19; E = 0.0 Ha
O      -0.72472985     1.74648804    -1.76031526
O       1.32394369    -1.29079338    -1.46368438
O      -1.60262709    -1.61132381    -1.18822784
O      -3.86546616    -0.78020103    -2.25091146
C      -0.40265824     0.44845798    -1.29379657
C       0.81625936    -0.13425217    -2.04727296
C      -1.60896392    -0.42761147    -1.48337050
C      -2.85357275     0.17831294    -2.07454891
H      -0.17187098     0.44196313    -0.22232702
H       0.52194247    -0.32500366    -3.08706981
H       1.55877798     0.67731556    -2.07203380
H      -2.58207066     0.64786831    -3.02405620
H      -3.17595826     0.98607469    -1.40937270
H      -0.05109553     2.35771913    -1.44139194
H      -3.51680558    -1.61367073    -1.89874873
Ca      0.15415058    -3.36276281    -0.45505237
O      -0.17195748    -5.47104743    -0.41362927
H      -0.16679276    -6.42425342    -0.38008618
O       0.94195185    -1.51457779     0.87533833
H       1.69660196    -1.48367971     1.46936412
H       1.27176697    -1.23590346    -0.31409951
