21
TS21; E = 0.0 Ha
O      -0.54124446     1.21147277    -0.75899161
O       1.37567273    -1.69316714    -1.80177036
O      -0.96852199    -2.06137580     0.58246832
O      -2.39886178    -0.19426612    -2.22388674
C      -0.02925610    -0.11771715    -0.51433415
C       0.93629141    -0.37111949    -1.67633548
C      -1.12703429    -1.16036774    -0.40621139
C      -2.19437819    -1.12765822    -1.21207552
H       0.51496111    -0.12816835     0.43338050
H       0.39856486    -0.11306660    -2.59464485
H       1.76835069     0.34365197    -1.58261128
H      -2.99514629    -1.85162863    -1.13275917
H      -0.64964857    -3.11543091     0.25850528
H      -1.05937892     1.47557034     0.01028781
H      -1.83059521     0.56463835    -2.00868820
Ca      1.85377764    -5.14548939    -0.00225558
O      -0.32489645    -4.33307691     0.03170762
H      -1.13332222    -4.84647874     0.09793165
O       2.54907598    -2.98004168     0.12883359
H       3.43121876    -2.63619100     0.28497065
H       1.80744502    -2.06812134    -0.96335806
