13
TS4; E = 0.0 Ha
O       1.73651469    -0.16862008     0.15148540
O      -1.83168089    -0.07121946     0.04919399
C       0.42626587    -0.61729303     0.47527795
C      -0.62465536     0.18471754    -0.06853824
H       0.02533486    -0.49574349     1.72915491
H       0.30032509    -1.69149212     0.31455669
H      -0.31616042     1.15082022    -0.51099041
H       2.13309881     0.18237563     0.95379064
Ca     -2.95178265    -0.55162566     2.25875381
O      -5.03940068    -0.78896527     2.68523281
H      -5.95358265    -0.94810751     2.90620219
O      -0.68821227    -0.41740797     2.83480630
H      -0.19193606    -0.84241678     3.53974866
