17
TS6; E = 0.0 Ha
O      -0.13997485     1.67527944     0.16441022
O       1.95988328    -1.24844423    -0.40922954
O      -1.68992872    -0.38885644     0.80664572
C       0.22100335     0.41483067    -0.35247679
C       1.64472739     0.01619060     0.07402277
C      -0.74689604    -0.64466604     0.08919825
H       0.18987006     0.43165316    -1.45000397
H       1.67482062     0.06800558     1.17506988
H       2.32431671     0.79924469    -0.29386028
H      -0.54310241    -1.66383549    -0.26138291
H      -0.92329639     1.53330023     0.71938786
Ca      2.53207090    -2.79687189    -2.59443407
O       4.16251629    -1.77666674    -1.13481336
H       4.69877185    -2.23250792    -0.48186311
H       3.11139155    -1.41532051    -0.61888356
O       1.27639632    -4.42363214    -3.24684277
H       0.89512492    -5.16372250    -3.71449458
