22
TS9; E = 0.0 Ha
O       0.61935065     0.15343364     0.92502266
O      -0.02366559    -2.59337321     1.67931571
O      -2.47484140    -2.06677955     0.55547261
O      -1.50760361    -0.04011536    -0.97532892
O       0.71634645     1.94087648     3.16131950
C      -0.67610263    -1.42855066     2.13669327
C       0.33529199    -0.27950709     2.20954189
C      -1.86236257    -0.99176987     1.22031293
C      -1.49179734     0.12632731     0.23275001
C      -0.18086637     0.83752137     3.12174390
H      -1.07005121    -1.65901642     3.13534236
H       1.23496501    -0.68776676     2.70371197
H      -2.62071024    -0.54598587     1.87971392
H      -1.49336874     1.13921935     0.65610395
H      -0.28011957     0.46259889     4.14362044
H      -1.17449266     1.18162025     2.79859993
H      -1.82917866    -2.36762173    -0.13730537
H       0.91536318     2.13381220     2.23544601
Ca      1.40201472    -1.24855184    -0.83655492
O      -0.32974869    -2.84279337    -0.88605064
H      -0.31526410    -3.77288157    -1.12618405
H      -0.22215862    -2.77069618     0.70971284
