21
TS24; E = 0.0 Ha
O      -0.86074331     1.64924248    -1.98265890
O       1.07722391    -0.39301124    -2.50006911
O      -1.33666275    -1.30711811    -0.12495308
O      -2.87849179    -1.95612551    -2.25051482
C      -0.47073398     0.70982398    -0.98889447
C       0.96073155     0.23367521    -1.23249887
C      -1.38573893    -0.50328280    -1.03902948
C      -2.28011300    -0.71572018    -2.23176778
H      -0.54173448     1.13725782     0.01572553
H       1.63975332     1.08762544    -1.15018269
H       1.23028873    -0.50556325    -0.47897575
H      -1.65266055    -0.53128190    -3.11586977
H      -2.99305209     0.13023394    -2.22340084
H      -0.44577388     2.49535837    -1.77788718
H      -3.73852959    -2.00964583    -1.39925383
Ca     -2.43145966    -3.58825499     0.00908191
O      -4.38749954    -2.22930836    -0.41733755
H      -5.25954976    -2.53272051    -0.68194409
O      -0.59798407    -4.51748583    -0.72491655
H       0.16118757    -4.19334950    -1.20917643
H       0.80654230     0.25265077    -3.16547626
