17
TS17; E = 0.0 Ha
O       1.13166539    -0.90689436     0.59632182
O      -1.28425092    -1.88767879     0.73483939
O      -0.33010605     1.30858194    -1.79638172
C       0.31866093    -0.31315660    -0.13885724
C      -1.13305481    -0.73719549    -0.06846345
C       0.73170435     0.64525530    -1.11874793
H      -0.27889289     1.06990886    -2.72650630
H      -1.50458339    -0.91528694    -1.07834246
H      -1.70182428     0.10750642     0.33727019
H       1.48544507     1.34106510    -0.74420183
H       1.48665952    -0.20732361    -1.80437251
Ca      3.47070226    -1.64384762    -0.12615513
O       4.38381861    -3.53223719    -0.59822550
H       4.50031089    -4.44044522    -0.86933568
H      -0.40434683    -2.03508370     1.12173086
O       2.35407613    -1.13068626    -2.11139716
H       2.68901601    -0.96848182    -2.99717537
