21
TS20; E = 0.0 Ha
O       0.50857136     1.77619368    -1.25686764
O       1.61742256    -1.59245199    -2.08170073
O      -0.52546724    -0.97732688     0.52269658
O      -1.56013842     0.49233194    -2.59238265
C       0.78292548     0.41259808    -0.90319370
C       1.52079325    -0.19605191    -2.09746333
C      -0.50593089    -0.32051412    -0.53709194
C      -1.62560187    -0.31724102    -1.42584430
H       1.41538606     0.37376248    -0.01424472
H       0.97455244     0.10082692    -2.99700203
H       2.50734806     0.28862950    -2.13932253
H      -2.58013772    -0.22858461    -0.89710727
H      -1.59022900    -1.64454187    -1.64191851
H       0.42132832     2.29416652    -0.44907709
H      -1.10115714     1.30799270    -2.34614138
Ca     -0.47999789    -3.46401409     0.49746667
O      -1.53934128    -2.93467606    -1.53161483
H      -2.34974126    -3.27033561    -1.92513059
O       1.69350397    -2.92274517     0.13001556
H       2.43487424    -3.52672166     0.03778590
H       1.68999519    -2.00525925    -1.15349350
