18
TS28; E = 0.0 Ha
O       2.67421241     1.03273016     0.24916541
O       1.80269631    -1.38058175    -2.70486942
O       2.93988081    -2.48299868    -0.47211021
O       0.75811530     1.90086009    -1.66667871
C       2.37596929    -0.13547016    -0.07579092
C       1.94435806    -0.05771154    -2.23320741
C       3.45897268    -1.20058598    -0.18355719
C       0.79903134     0.69160401    -2.02280023
H       1.39207910    -0.55741831     0.18597283
H       2.90520344     0.40997624    -2.41866349
H       3.93239997    -1.25207578     0.80224063
H       4.22553975    -0.89023348    -0.90178737
H      -0.14636471     0.12394660    -2.08446128
H       1.98695715    -1.40124096    -3.65028725
H       2.54778858    -2.41311229    -1.35966661
Ca      1.95081670     3.31740707    -0.14429818
O       2.30219477     5.29522976     0.60307998
H       2.42584923     6.17978092     0.93773801
