17
TS13; E = 0.0 Ha
O       1.57514039     0.16664931    -0.40951326
O      -1.65566252     0.08916643     1.05459381
O      -1.68135293     1.41261941    -1.36969928
C       0.24937993     0.34295281    -0.48525350
C      -0.64815010    -0.59174970     0.30733709
C      -0.28713458     1.30581021    -1.24394048
H      -1.91276587     2.34589653    -1.43114585
H      -0.03480549    -1.15115084     1.01440473
H      -1.11295799    -1.31643794    -0.37112190
H       0.31046171     1.99363674    -1.82892372
H       1.88217815    -0.84669390    -0.02404356
Ca      2.46530117    -3.86801016    -1.09677226
O       3.89229114    -3.30939676    -2.64766978
H       4.54483179    -3.48638933    -3.32432588
H      -2.08676831     0.67688029     0.41694561
O       2.29729403    -2.02849447     0.33630117
H       2.63640499    -1.96810506     1.23307999
