17
TS11; E = 0.0 Ha
O       0.15887211     1.66537904     0.29910672
O       1.97612258    -1.53131223     0.19614630
O      -1.89834841    -0.00657659     0.70228734
C       0.33961727     0.27221463     0.04005902
C       1.71297876    -0.18840649     0.51788200
C      -0.78951740    -0.49823353     0.41842059
H       0.42634835     0.10126803    -1.33328849
H       1.79141361    -0.04974057     1.60648908
H       2.46544615     0.47061350     0.06490142
H      -0.66192975    -1.59136843     0.39110279
H      -0.75008361     1.72856218     0.63400062
Ca      2.74054521     0.00205008    -3.62047262
O       3.40012443    -1.40280999    -1.95344332
H       4.28270814    -1.64368485    -1.66272898
H       2.50508857    -1.51775960    -0.67352352
O       0.63277458     0.10198618    -2.56886712
H      -0.17416061    -0.26818136    -2.93907184
