14
TS5; E = 0.0 Ha
Ca      0.61494800     1.91024200    -0.52165400
O      -1.48950000     2.21561700    -0.72478700
H      -2.43586000     2.34848500    -0.75145800
C       3.21986700     1.15141900     0.98707800
H       3.81055300     0.59556800     1.77051600
C       3.78768700     2.31295200     0.64349300
H       3.37362400     3.03318400    -0.07200000
O       2.14594900     0.58333500     0.47898400
O       4.96207800     2.71591200     1.32280600
H       5.62931200     2.98073200     0.67515800
C       3.53417800     1.62861600    -2.16356800
H       4.31895600     2.15363800    -2.73578600
H       3.81043200     0.69072600    -1.66423600
O       2.40147600     1.98064600    -2.23151100
