17
TS14; E = 0.0 Ha
O       1.41766438     0.30827274     0.18224309
O       1.58856428    -2.48114707     0.21990201
O       2.18048483    -0.60237348     3.65268606
C       1.33825029    -1.87216845     1.23423837
C       1.20596564    -0.36335692     1.34048967
C       2.16732852     0.14845144     2.44052912
H       1.16428924    -2.42340518     2.17805773
H       0.17306908    -0.24798502     1.75496921
H       1.91996244     1.19614739     2.63191947
H       3.18053941     0.11280978     2.03636252
H       1.34363492    -0.46342843     4.10780019
Ca      1.71641924     2.16174301    -2.62692315
O       2.68732662     3.59256312    -1.22421178
H       2.44527857     3.65644703    -0.29806307
H       0.48522547     1.14392421    -0.36088585
O      -0.09145036     1.83701342    -0.96882679
H      -0.90755259     1.38349240    -1.19928682
