22
TS7; E = 0.0 Ha
O       0.96414062     1.02973226     0.69358155
O       0.65598868    -1.66147094     0.26933751
O      -2.12018065    -2.51179290     1.48054040
O      -1.61482569    -0.64985522    -0.77704112
O       1.21510053     1.90095906     3.42187289
C       0.39968741    -1.21435084     1.40714457
C       1.00729762     0.12496068     1.78604480
C      -1.91913134    -1.17254234     1.52437962
C      -1.78023897    -0.32266502     0.45150520
C       0.42719404     0.78410008     3.01988643
H       0.17582887    -1.89530478     2.23727247
H       2.06097814    -0.10669901     2.01063682
H      -2.09490242    -0.73063178     2.50252233
H      -1.74183225     0.74057934     0.72946661
H       0.44091270     0.07553668     3.84890859
H      -0.60628184     1.08436288     2.83069827
H      -1.97127173    -2.93650770     0.53788742
H       1.26064697     2.50376741     2.66958497
Ca     -0.33394722    -2.35200674    -1.83981971
O      -1.76535351    -3.72326123    -0.71602401
H      -1.62710373    -4.63335620    -0.44326380
H       0.69329376     0.50544631    -0.07612182
