22
TS8; E = 0.0 Ha
O       0.60636221     0.63072226     0.20276735
O       0.16797209    -1.64082374    -0.14628326
O      -2.03582390    -2.63016830     1.02439323
O      -2.94507815    -0.37009927    -0.20266988
O      -0.66497570     1.70517229     2.57814184
C      -0.02282991    -1.36960313     1.20719419
C       0.73764217    -0.03024305     1.44078322
C      -1.54784162    -1.38043613     1.47134604
C      -2.21402957    -0.23227399     0.75474530
C       0.39080677     0.78520202     2.69475396
H       0.40157816    -2.14601774     1.86276871
H       1.78912849    -0.33500023     1.58040579
H      -1.75685037    -1.28220559     2.54206874
H      -1.97048549     0.75770554     1.16499024
H       1.30204345     1.30234125     3.02541308
H       0.14251080     0.06587210     3.48715174
H      -1.55868383    -2.74894411     0.18367188
H      -0.31793516     2.46477163     1.98796640
Ca      0.15666490     2.64551544    -1.03940761
O       0.22551441     3.59095117     1.05503522
H       0.98479695     3.97137701     1.50551016
H       0.40551330    -0.38681542    -0.32874631
