17
TS16; E = 0.0 Ha
O       0.22364698    -2.01313089    -0.16433113
O      -1.65677276    -0.65608696     1.08732032
O       2.21460825    -1.08816302    -1.77477590
C       0.32474969    -0.80499819    -0.28760641
C      -0.68024731     0.08902094     0.39903995
C       1.41993900    -0.17168048    -1.11147284
H       0.92663082     0.51171380    -1.81540889
H      -1.14642326     0.72123927    -0.36259103
H      -0.13610468     0.74880997     1.08242816
H       1.98378964     0.47541869    -0.41925205
Ca      1.65520107    -3.76509847    -1.35340985
H      -1.40688978    -1.58741885     0.98568835
O       1.07875828    -5.53504318    -2.41378213
H       0.93601004    -6.29224282    -2.97636182
O       3.37111765    -2.53197582    -0.25977938
H       4.32093659    -2.60176567    -0.38236251
H       2.87804977    -1.65259831    -1.02434286
