10
TS2; E = 0.0 Ha
Ca      0.35341458     1.69247255    -2.61088866
O      -0.72348840    -0.11950037    -2.01159156
H      -0.86805989    -0.85042942    -1.41326174
H       3.78132284     1.62335256     0.01483906
C       3.21168723     1.09781398    -0.89102903
O       3.93892780     1.06618566    -1.88661410
C       3.10772234    -1.11703167     0.81698530
H       3.33851860    -0.14227980     1.27261923
H       3.76456922    -1.42910497    -0.00948953
O       2.23177511    -1.83597012     1.23990987
