25
TS10; E = 0.0 Ha
O       0.02325167     0.58362113     0.57976966
O      -0.09123825    -2.51168024     1.24515702
O      -2.52651971    -1.64635242     0.24242632
O      -1.84054607     0.86142903    -0.77400776
O       0.98486484     1.94102120     2.79924700
C      -0.60998924    -1.33496350     1.81552902
C       0.36304855    -0.15732002     1.74512231
C      -1.88789324    -0.76086308     1.12048574
C      -1.44017438     0.59836839     0.47727648
C       0.27815050     0.72324248     2.98771667
H      -0.82306832    -1.56427571     2.86557996
H       1.38745556    -0.51245770     1.62115214
H      -2.61842737    -0.52355002     1.89855568
H      -1.78081104     1.40982410     1.14919142
H       0.73013972     0.19867316     3.83062619
H      -0.77093201     0.92174625     3.24337241
H      -1.88113507    -1.96163263    -0.44552999
H       0.77956958     2.22027087     1.89581467
Ca      0.45993676    -1.96904574    -3.15819750
O      -0.67116460    -2.81111363    -1.30763670
H      -1.06622656    -3.68801974    -1.30339978
H      -0.27339734    -2.57085472     0.25989531
O      -1.00592700    -0.18747535    -2.78266442
H      -1.11359087     0.53875504    -3.40265718
H      -1.39427092     0.25414129    -1.69844631
