      36
final step 1000
   C        -2.3770000000         0.7920000000        -0.3700000000
   C        -4.6840000000         1.5580000000         0.0310000000
   H        -5.2390000000         1.2400000000        -0.9840000000
   C        -3.7320000000         2.5830000000        -0.4740000000
   H        -3.8360000000         3.1700000000        -1.4030000000
   B        -1.6960000000         0.0490000000         0.1070000000
   N        -2.1940000000         1.8890000000        -0.9750000000
   N        -3.4330000000         0.4080000000        -0.2540000000
   C        -1.4210000000         2.9170000000        -1.0780000000
   H        -1.1000000000         3.7670000000        -0.4890000000
   H        -0.1750000000         2.3940000000        -1.3060000000
   H        -1.4480000000         3.4200000000        -2.0840000000
   C        -3.9130000000        -0.7820000000         0.1500000000
   H        -3.0970000000        -1.5030000000         0.4570000000
   H        -4.4950000000        -0.9160000000         1.3760000000
   H        -4.8920000000        -1.3700000000        -0.2710000000
   N         0.1080000000         0.1180000000        -1.4180000000
   N         0.3050000000        -0.1100000000        -2.6190000000
   H        -3.6040000000         3.4860000000         0.1020000000
   H        -5.1310000000         1.5890000000         0.8710000000
   C        -0.3150000000         0.0480000000         0.8880000000
   C         0.9020000000        -0.9060000000         1.2840000000
   C        -0.0500000000         1.7960000000         1.6890000000
   C        -1.1690000000        -0.6660000000         2.4790000000
   H         0.9250000000         1.8140000000         0.8390000000
   H        -0.8000000000         2.3280000000         1.3930000000
   H         0.6170000000         1.3710000000         2.3110000000
   H        -2.1720000000         0.0550000000         2.6260000000
   H        -1.7210000000        -1.3820000000         2.3370000000
   H        -0.9710000000        -0.0410000000         3.3260000000
   H         1.4860000000        -0.9890000000         2.3970000000
   H         1.0050000000        -1.8650000000         1.2160000000
   H         1.9180000000        -0.3840000000         0.7100000000
   C        -0.9440000000        -2.5600000000        -0.7380000000
   O        -1.0370000000        -1.5570000000         0.0080000000
   O        -0.6560000000        -2.9790000000        -1.9770000000
