      36
best bond-forming step 647
   C        -2.9370000000         0.6110000000        -0.5270000000
   C        -4.6510000000         1.4950000000         0.8350000000
   H        -5.3220000000         0.9880000000         0.1770000000
   C        -3.8630000000         2.5570000000         0.1220000000
   H        -4.2450000000         2.9100000000        -0.8780000000
   B        -1.5690000000        -0.9130000000        -0.3310000000
   N        -2.6810000000         1.7430000000        -0.5850000000
   N        -3.6220000000         0.4750000000         0.5530000000
   C        -1.9260000000         2.6190000000        -1.7880000000
   H        -1.3280000000         3.5500000000        -1.2950000000
   H        -0.9320000000         2.1870000000        -2.1400000000
   H        -2.4090000000         2.9400000000        -2.6490000000
   C        -3.5450000000        -0.4380000000         1.4490000000
   H        -2.3980000000        -2.0100000000         0.6670000000
   H        -3.3340000000        -0.3180000000         2.4680000000
   H        -4.2480000000        -1.4530000000         1.1440000000
   N        -0.4960000000         0.5610000000        -0.2470000000
   N         0.2870000000        -1.7390000000        -2.6020000000
   H        -3.4230000000         3.4620000000         0.5260000000
   H        -4.6790000000         1.7250000000         1.8520000000
   C         0.4480000000        -0.1350000000         0.8410000000
   C         1.6510000000        -0.2100000000         0.7020000000
   C         0.6200000000         1.5200000000        -0.3410000000
   C        -0.5750000000        -0.1980000000         2.2570000000
   H         1.9800000000         2.4950000000        -0.1560000000
   H         0.1930000000         2.3250000000         0.3710000000
   H         1.7420000000         2.3360000000         1.1940000000
   H        -1.0570000000         0.7120000000         2.1340000000
   H        -0.3070000000        -1.1880000000         2.7540000000
   H         0.0360000000         0.4560000000         2.7370000000
   H         2.6450000000         0.3320000000         1.4100000000
   H         1.5630000000        -1.5140000000         0.7000000000
   H         2.0570000000        -0.0120000000        -0.6320000000
   C        -0.7310000000        -1.2070000000        -1.6340000000
   O        -1.9120000000        -1.7230000000        -0.1800000000
   O        -0.9600000000        -2.6680000000        -1.9290000000
