      36
best product-like step 333
   C        -2.4200000000         1.1810000000        -0.2150000000
   C        -4.2100000000         2.1540000000         0.9320000000
   H        -5.2260000000         1.7240000000         0.9790000000
   C        -4.0270000000         2.7610000000        -0.4660000000
   H        -4.9640000000         2.9230000000        -1.0010000000
   B        -1.1620000000         0.4890000000        -0.6350000000
   N        -3.2350000000         1.7520000000        -1.1520000000
   N        -3.1770000000         1.0970000000         0.9960000000
   C        -2.7610000000         2.0190000000        -2.4750000000
   H        -1.9560000000         2.7770000000        -2.4750000000
   H        -2.3170000000         1.1290000000        -2.9120000000
   H        -3.5660000000         2.3380000000        -3.1260000000
   C        -3.8090000000        -0.0500000000         1.7030000000
   H        -3.4650000000        -1.0320000000         1.4100000000
   H        -3.5950000000         0.0570000000         2.7710000000
   H        -4.9080000000        -0.0610000000         1.5830000000
   N        -1.0740000000        -0.2130000000        -2.4930000000
   N        -1.5460000000        -1.2160000000        -2.7540000000
   H        -3.4540000000         3.7070000000        -0.4510000000
   H        -4.1000000000         2.8690000000         1.7560000000
   C        -0.5690000000        -0.4240000000         0.5050000000
   C         0.4360000000        -3.1720000000         1.1470000000
   C        -1.4230000000        -1.2930000000        -0.3090000000
   C        -0.6120000000         0.0610000000         1.9820000000
   H        -2.2840000000        -1.7820000000         0.0170000000
   H        -2.0980000000        -0.4500000000        -0.8250000000
   H        -0.7240000000        -1.7660000000        -1.0220000000
   H        -1.0470000000         1.0670000000         2.0250000000
   H        -1.1690000000        -0.6960000000         2.5580000000
   H         0.4430000000        -0.0050000000         2.2880000000
   H         1.2170000000        -2.6480000000         1.6880000000
   H        -0.6070000000        -2.9750000000         1.4170000000
   H         0.5850000000        -3.0500000000         0.0570000000
   C         0.7040000000        -0.7280000000         0.0960000000
   O         1.6680000000        -0.6320000000         0.9330000000
   O         1.0250000000        -0.9630000000        -1.1370000000
