      36
final step 1000
   C        -2.2380000000         0.7800000000         0.0210000000
   C        -3.5330000000         2.1530000000         1.4530000000
   H        -4.4740000000         1.8410000000         1.9300000000
   C        -3.7560000000         2.5780000000         0.0120000000
   H        -4.7260000000         2.1420000000        -0.2940000000
   B        -1.7030000000        -0.4470000000        -0.9770000000
   N        -2.6610000000         1.8770000000        -0.6970000000
   N        -2.6200000000         0.8770000000         1.3460000000
   C        -2.5940000000         1.7940000000        -2.1610000000
   H        -2.6810000000         0.7550000000        -2.4980000000
   H        -3.5110000000         2.3050000000        -2.4980000000
   H        -1.7090000000         2.2700000000        -2.6190000000
   C        -1.8430000000         0.3370000000         2.4460000000
   H        -2.1490000000         0.8370000000         3.3710000000
   H        -2.0450000000        -0.7270000000         2.6110000000
   H        -0.7570000000         0.4360000000         2.2640000000
   N        -0.8290000000        -0.2170000000        -2.1660000000
   N        -0.1210000000        -0.5570000000        -2.9980000000
   H        -3.8040000000         3.6710000000        -0.1160000000
   H        -3.0530000000         2.9050000000         2.0970000000
   C        -2.2430000000        -1.9700000000        -0.8940000000
   C        -0.9590000000        -2.8100000000        -0.7210000000
   C        -3.0720000000        -2.1390000000        -2.3630000000
   C        -3.0560000000        -2.0030000000         0.5700000000
   H        -3.6930000000        -3.0520000000        -2.3860000000
   H        -3.7940000000        -1.3240000000        -2.4140000000
   H        -2.3560000000        -2.1380000000        -3.1880000000
   H        -2.3360000000        -1.5580000000         1.2440000000
   H        -4.0970000000        -1.6730000000         0.6090000000
   H        -3.0560000000        -3.0690000000         0.8800000000
   H        -0.2870000000        -2.3520000000         0.0190000000
   H        -1.1970000000        -3.7720000000        -0.2350000000
   H        -0.5100000000        -2.9660000000        -1.7150000000
   C         2.0190000000         0.4720000000         0.5850000000
   S         0.7180000000        -0.3290000000         0.7930000000
   S         3.4210000000         1.1500000000         0.6180000000
