      36
best bond-forming step 156
   C        -2.3180000000         0.9270000000        -0.3020000000
   C        -3.9570000000         2.1160000000         0.6130000000
   H        -4.6520000000         1.2440000000         0.5560000000
   C        -3.7980000000         2.6960000000        -0.7950000000
   H        -4.7640000000         2.7450000000        -1.3160000000
   B        -1.1400000000        -0.0680000000        -0.4280000000
   N        -2.9280000000         1.6540000000        -1.3730000000
   N        -2.6320000000         1.6490000000         0.8850000000
   C        -3.2120000000         1.2750000000        -2.7800000000
   H        -2.7040000000         1.9820000000        -3.4630000000
   H        -2.9210000000         0.2650000000        -3.0560000000
   H        -4.3000000000         1.3460000000        -2.9670000000
   C        -2.5680000000         1.3300000000         2.3110000000
   H        -1.7820000000         0.6320000000         2.5970000000
   H        -2.3810000000         2.2800000000         2.8480000000
   H        -3.5390000000         0.9340000000         2.6710000000
   N        -0.8840000000        -0.0410000000        -1.8600000000
   N        -0.6360000000         0.0490000000        -3.0220000000
   H        -3.3170000000         3.6960000000        -0.8270000000
   H        -4.3440000000         2.8310000000         1.3520000000
   C        -1.2050000000        -1.5280000000         0.5000000000
   C        -0.9420000000        -2.5640000000        -0.6110000000
   C        -2.6960000000        -1.4640000000         0.9210000000
   C        -0.6740000000        -2.2100000000         1.7780000000
   H        -3.0910000000        -2.5040000000         0.9570000000
   H        -2.8440000000        -1.0850000000         1.9160000000
   H        -3.4000000000        -0.9710000000         0.2390000000
   H         0.3110000000        -2.6820000000         1.6660000000
   H        -0.6690000000        -1.5980000000         2.6950000000
   H        -1.3980000000        -3.0310000000         1.9480000000
   H         0.1160000000        -2.6310000000        -0.8790000000
   H        -1.2580000000        -3.5640000000        -0.2450000000
   H        -1.5230000000        -2.4080000000        -1.5330000000
   C         1.8630000000        -0.2130000000         0.2050000000
   S         0.9510000000        -0.0160000000         1.4920000000
   S         2.6490000000        -0.4040000000        -1.2310000000
