      25
final step 1000
   C        -3.8620000000        -0.4510000000         1.6030000000
   C        -5.8070000000        -0.3660000000         2.7930000000
   H        -5.9380000000        -1.3720000000         3.2120000000
   C        -6.1630000000        -0.3360000000         1.2880000000
   H        -6.9920000000        -1.0190000000         1.0510000000
   B        -2.1950000000        -0.1370000000         1.4300000000
   N        -4.7930000000        -0.7010000000         0.6590000000
   N        -4.3520000000        -0.0130000000         2.8090000000
   C        -4.2280000000        -0.6020000000        -0.6950000000
   H        -4.9370000000        -0.9120000000        -1.4700000000
   H        -3.9560000000         0.4670000000        -0.8060000000
   H        -3.3220000000        -1.2220000000        -0.7440000000
   C        -3.6610000000         1.0690000000         3.6750000000
   H        -2.7840000000         0.5620000000         4.1050000000
   H        -3.3850000000         1.9070000000         3.0300000000
   H        -4.3460000000         1.3080000000         4.5020000000
   N         5.7510000000        -3.1970000000        -4.5950000000
   N         6.0340000000        -2.5450000000        -3.7390000000
   H        -6.3920000000         0.6940000000         0.9880000000
   H        -6.4870000000         0.3430000000         3.2820000000
   C        -1.1470000000        -1.0440000000         0.6740000000
   N        -0.6100000000        -1.8380000000        -0.0590000000
   C         4.2780000000         0.4500000000        -3.9900000000
   O        -2.0050000000         0.9820000000         1.9070000000
   O         4.0200000000         1.1060000000        -3.0940000000
