      25
best bond-forming step 139
   C        -2.0050000000        -0.2530000000         0.1660000000
   C        -3.9370000000         0.9920000000         0.5510000000
   H        -4.7770000000         0.3140000000         0.3080000000
   C        -3.2760000000         1.5240000000        -0.6940000000
   H        -3.9420000000         1.4930000000        -1.5640000000
   B        -0.7600000000        -1.3650000000         0.5170000000
   N        -2.1400000000         0.5910000000        -0.8980000000
   N        -2.8370000000         0.2120000000         1.1400000000
   C        -1.6750000000         0.5970000000        -2.2980000000
   H        -0.6310000000         0.8920000000        -2.3790000000
   H        -1.8220000000        -0.3810000000        -2.7690000000
   H        -2.3060000000         1.3230000000        -2.8120000000
   C        -3.2580000000        -0.5740000000         2.3010000000
   H        -2.4480000000        -1.1520000000         2.7240000000
   H        -3.6390000000         0.1160000000         3.0610000000
   H        -4.0600000000        -1.2660000000         2.0010000000
   N         0.0790000000        -1.6020000000        -0.9060000000
   N         0.3740000000        -2.2390000000        -1.9120000000
   H        -2.8950000000         2.5520000000        -0.5830000000
   H        -4.2920000000         1.7640000000         1.2440000000
   C        -0.7210000000        -2.0080000000         1.7570000000
   N        -0.9950000000        -2.8190000000         2.5500000000
   C         0.6250000000        -0.4400000000        -0.6210000000
   O         0.4150000000        -0.5350000000         0.8210000000
   O         1.3600000000         0.1720000000        -1.4080000000
