      25
best product-like step 95
   C        -2.0040000000        -0.0990000000         0.2210000000
   C        -3.9660000000         1.1380000000         0.5010000000
   H        -4.9230000000         0.6680000000         0.2250000000
   C        -3.1820000000         1.6220000000        -0.7190000000
   H        -3.8560000000         1.9220000000        -1.5250000000
   B        -0.8230000000        -1.0760000000         0.4180000000
   N        -2.3980000000         0.4250000000        -1.0330000000
   N        -3.0510000000         0.1630000000         1.0910000000
   C        -1.4880000000         0.4690000000        -2.1800000000
   H        -0.4440000000         0.4650000000        -1.9040000000
   H        -1.6710000000        -0.3650000000        -2.8650000000
   H        -1.6630000000         1.3920000000        -2.7350000000
   C        -3.5460000000        -0.5780000000         2.2670000000
   H        -2.7600000000        -1.1470000000         2.7550000000
   H        -3.9380000000         0.1570000000         2.9790000000
   H        -4.3500000000        -1.2690000000         1.9810000000
   N        -0.3900000000        -1.8350000000        -0.8630000000
   N         0.1120000000        -2.0910000000        -1.8630000000
   H        -2.5150000000         2.4680000000        -0.4750000000
   H        -4.1730000000         1.9640000000         1.1940000000
   C        -0.7560000000        -2.0540000000         1.6600000000
   N        -1.2120000000        -2.7880000000         2.4380000000
   C         1.1440000000        -0.3060000000        -0.3060000000
   O         1.2450000000        -0.5530000000         0.8640000000
   O         1.4460000000        -0.0720000000        -1.4400000000
