      32
final step 1000
   C        -2.8710000000         0.2130000000        -0.7910000000
   C        -4.7160000000         1.4980000000        -0.0320000000
   H        -5.6370000000         0.9880000000         0.2970000000
   C        -4.5730000000         1.5480000000        -1.5790000000
   H        -5.5450000000         1.3720000000        -2.0570000000
   B        -1.4760000000        -0.4860000000        -0.7190000000
   N        -3.6070000000         0.5000000000        -1.9200000000
   N        -3.5180000000         0.7490000000         0.3010000000
   C        -3.3360000000         0.2060000000        -3.3180000000
   H        -2.4980000000         0.7840000000        -3.7390000000
   H        -3.1280000000        -0.8570000000        -3.4570000000
   H        -4.2430000000         0.4530000000        -3.8700000000
   C        -2.9450000000         0.5930000000         1.6190000000
   H        -1.9230000000         0.2310000000         1.4960000000
   H        -2.9240000000         1.5610000000         2.1440000000
   H        -3.5100000000        -0.1330000000         2.2320000000
   N        -0.5940000000         0.0400000000        -1.6390000000
   N         0.2120000000         0.2890000000        -2.4350000000
   H        -4.1800000000         2.5130000000        -1.9310000000
   H        -4.7190000000         2.5110000000         0.4080000000
   P        -0.6000000000        -2.1370000000         0.1380000000
   C        -1.5240000000        -3.5870000000        -0.7380000000
   C         0.9540000000        -2.1240000000        -0.9310000000
   H         0.7330000000        -2.0700000000        -2.0050000000
   H         1.5830000000        -1.2520000000        -0.7220000000
   H         1.5600000000        -3.0400000000        -0.8160000000
   H        -1.1900000000        -3.6770000000        -1.7750000000
   H        -1.3110000000        -4.5180000000        -0.2030000000
   H        -2.6000000000        -3.3930000000        -0.7190000000
   C         1.5340000000         1.2880000000         2.1230000000
   O         1.9290000000         1.8630000000         3.0500000000
   O         1.2220000000         0.7100000000         1.1620000000
