      32
best TS-like step 1
   C        -2.6350000000         0.6270000000        -0.3530000000
   C        -4.1890000000         1.7430000000         0.9830000000
   H        -5.1720000000         1.2490000000         1.0690000000
   C        -4.0390000000         2.4920000000        -0.3430000000
   H        -5.0040000000         2.7010000000        -0.8240000000
   B        -1.6210000000        -0.4050000000        -0.8170000000
   N        -3.2630000000         1.5540000000        -1.1330000000
   N        -3.1150000000         0.7700000000         0.9140000000
   C        -3.2200000000         1.6240000000        -2.5700000000
   H        -2.3730000000         2.2170000000        -2.9500000000
   H        -3.1380000000         0.6090000000        -2.9780000000
   H        -4.1520000000         2.0770000000        -2.9350000000
   C        -2.5110000000         0.2200000000         2.0990000000
   H        -1.4790000000        -0.0700000000         1.8680000000
   H        -2.4920000000         0.9830000000         2.8920000000
   H        -3.0480000000        -0.6620000000         2.4820000000
   N        -0.8480000000         0.0450000000        -1.9300000000
   N        -0.1780000000         0.4090000000        -2.7680000000
   H        -3.5050000000         3.4500000000        -0.2180000000
   H        -4.0620000000         2.3990000000         1.8550000000
   P        -1.4230000000        -2.2930000000        -0.4660000000
   C        -0.5380000000        -2.5300000000         1.1620000000
   C        -3.1460000000        -2.7720000000         0.0490000000
   H        -3.5660000000        -2.1380000000         0.8470000000
   H        -3.8140000000        -2.7020000000        -0.8250000000
   H        -3.1540000000        -3.8150000000         0.3980000000
   H        -0.3560000000        -3.6040000000         1.3100000000
   H         0.4340000000        -2.0230000000         1.1170000000
   H        -1.0930000000        -2.1610000000         2.0410000000
   C         2.6410000000        -0.0000000000         0.0030000000
   O         3.1700000000         0.0540000000         1.0340000000
   O         2.1080000000        -0.0550000000        -1.0300000000
