      32
best product-like step 91
   C        -2.5220000000         0.5620000000        -0.4520000000
   C        -4.2200000000         1.4390000000         0.8800000000
   H        -5.1440000000         0.8270000000         0.8970000000
   C        -4.0620000000         2.2450000000        -0.4330000000
   H        -5.0310000000         2.5040000000        -0.8770000000
   B        -1.3940000000        -0.2980000000        -0.9610000000
   N        -3.2790000000         1.3640000000        -1.2650000000
   N        -3.0230000000         0.6150000000         0.8410000000
   C        -3.1870000000         1.4790000000        -2.7140000000
   H        -2.4400000000         2.2210000000        -3.0460000000
   H        -2.9250000000         0.5070000000        -3.1370000000
   H        -4.1740000000         1.7750000000        -3.0980000000
   C        -2.3330000000         0.1460000000         2.0100000000
   H        -1.2850000000         0.0080000000         1.7400000000
   H        -2.3860000000         0.8900000000         2.8200000000
   H        -2.7350000000        -0.8030000000         2.4050000000
   N        -0.7820000000         0.2060000000        -2.1530000000
   N        -0.1980000000         0.7440000000        -2.9920000000
   H        -3.5070000000         3.1830000000        -0.2260000000
   H        -4.2370000000         2.1210000000         1.7410000000
   P        -1.1750000000        -2.2140000000        -0.4550000000
   C        -0.2930000000        -2.2410000000         1.2450000000
   C        -2.9990000000        -2.4510000000         0.1210000000
   H        -3.2980000000        -1.7010000000         0.8510000000
   H        -3.6280000000        -2.3410000000        -0.7790000000
   H        -3.1250000000        -3.4530000000         0.5410000000
   H         0.1260000000        -3.2380000000         1.4320000000
   H         0.5470000000        -1.5480000000         1.2780000000
   H        -0.9650000000        -1.9910000000         2.0840000000
   C         2.1350000000        -0.0880000000         0.3650000000
   O         2.7300000000         0.0490000000         1.3590000000
   O         1.5790000000        -0.1990000000        -0.6690000000
