      32
best bond-forming step 83
   C        -2.5330000000         0.5520000000        -0.4390000000
   C        -4.2100000000         1.4600000000         0.8910000000
   H        -5.1460000000         0.8690000000         0.8950000000
   C        -4.0500000000         2.2590000000        -0.4300000000
   H        -5.0200000000         2.5040000000        -0.8800000000
   B        -1.3870000000        -0.3010000000        -0.9140000000
   N        -3.2610000000         1.3750000000        -1.2640000000
   N        -3.0290000000         0.6180000000         0.8540000000
   C        -3.1860000000         1.4950000000        -2.7260000000
   H        -2.4200000000         2.2210000000        -3.0540000000
   H        -2.9400000000         0.5140000000        -3.1600000000
   H        -4.1710000000         1.7970000000        -3.1060000000
   C        -2.3400000000         0.1220000000         2.0170000000
   H        -1.2920000000        -0.0360000000         1.7380000000
   H        -2.3710000000         0.8630000000         2.8300000000
   H        -2.7550000000        -0.8290000000         2.3900000000
   N        -0.8000000000         0.1860000000        -2.1140000000
   N        -0.1830000000         0.7170000000        -2.9520000000
   H        -3.5040000000         3.2000000000        -0.2220000000
   H        -4.2110000000         2.1290000000         1.7650000000
   P        -1.1960000000        -2.2060000000        -0.4620000000
   C        -0.3260000000        -2.2490000000         1.2420000000
   C        -3.0190000000        -2.4610000000         0.1240000000
   H        -3.3360000000        -1.7350000000         0.8720000000
   H        -3.6910000000        -2.3730000000        -0.7370000000
   H        -3.1480000000        -3.4730000000         0.5420000000
   H         0.0800000000        -3.2570000000         1.4330000000
   H         0.5500000000        -1.5760000000         1.2660000000
   H        -0.9730000000        -1.9580000000         2.0670000000
   C         2.1710000000        -0.0820000000         0.3100000000
   O         2.7610000000         0.0510000000         1.3340000000
   O         1.5930000000        -0.1850000000        -0.7200000000
