      36
Step =        0, E =     -7.61204146
   C        -3.9559547569         0.4136054800         0.1416784581
   C        -3.6565806017         2.3610859955        -1.1083488129
   H        -3.9649388671         3.2256934240        -0.4930016030
   C        -4.8797423660         1.6092665315        -1.6233007415
   H        -5.7398656267         2.2594977577        -1.8169094799
   B        -3.7330048650        -0.6955438334         1.2083488745
   N        -5.1411836369         0.7068301033        -0.4958189949
   N        -3.0110336387         1.3367224864        -0.2688902359
   C        -6.3025726301        -0.1636259847        -0.5517176464
   H        -6.5461055812        -0.5494411946         0.4414658561
   H        -7.1576242900         0.4352797419        -0.8880363690
   H        -6.1676907572        -1.0122714402        -1.2414659348
   C        -2.0034096854         1.8446459132         0.6601799104
   H        -1.2116616464         2.3400117159         0.0877834792
   H        -2.4504639405         2.5605134541         1.3703862617
   H        -1.5642111725         1.0259641489         1.2296482625
   N        -4.7740609859        -0.5714245717         2.1487402628
   N        -5.6614865840        -0.4328634283         2.8786349709
   H        -4.6494703014         1.0427226956        -2.5447964800
   H        -2.9823826848         2.7102183631        -1.8989074835
   C        -2.6713294303        -1.9355666711         1.2607130100
   C        -1.2312224727        -1.5172101941         0.9004131374
   C        -3.1453622564        -2.9900469979         0.2285199222
   C        -2.6430478131        -2.6002294109         2.6524809970
   H        -2.4428371063        -3.8389352160         0.1969465337
   H        -4.1345466468        -3.3899679259         0.4893027393
   H        -3.2109912108        -2.5699827331        -0.7836819861
   H        -2.2056192665        -1.9378925411         3.4114252573
   H        -3.6439203819        -2.8941696808         2.9941879344
   H        -2.0278949757        -3.5130856722         2.6165494233
   H        -0.8034509693        -0.8556635110         1.6651025502
   H        -0.5914445912        -2.4118823843         0.8545445949
   H        -1.1643459380        -1.0104141879        -0.0716100301
   C         0.3053713078         1.6106449596        -3.3950866921
   O        -0.0561111915         2.3167768459        -2.5218842641
   O         0.6697414858         0.9165822713        -4.2640890046
