      36
Step =        0, E =     -7.60737886
   C        -3.7516422851         0.5071375445         0.1087104008
   C        -3.6083546272         2.6090516937        -0.8828671807
   H        -4.1410540341         3.5645278526        -0.8755321411
   C        -4.1330516545         1.6118988053        -1.9241756451
   H        -5.2117327018         1.7433218788        -2.1041826737
   B        -3.4241928190        -0.5692761391         1.1570672549
   N        -3.8649653482         0.3247676774        -1.2579657348
   N        -3.7994483642         1.8696175820         0.3721420738
   C        -3.1684376137        -0.7332552248        -1.9759279116
   H        -2.6080660494        -1.3443824316        -1.2657745095
   H        -3.8544807092        -1.3916226544        -2.5261232867
   H        -2.4428279822        -0.3068137740        -2.6814288199
   C        -4.6248047264         2.4164123369         1.4437436734
   H        -5.6750264586         2.0898504459         1.3650789249
   H        -4.2435754313         2.1263998720         2.4294442229
   H        -4.5975496339         3.5091477947         1.3772512083
   N        -2.3874794253         0.0138507703         1.9403050761
   N        -1.5137440446         0.5268213000         2.4831600588
   H        -3.6062445731         1.6722635173        -2.8830769308
   H        -2.5362140760         2.8018403941        -1.0368811475
   C        -3.8335602582        -2.1311309276         1.3492663224
   C        -2.6792047077        -3.0586833580         0.8778290030
   C        -5.1393724488        -2.4277249366         0.5767024133
   C        -4.0855836316        -2.4651558501         2.8401792936
   H        -5.2921442464        -3.5147693534         0.4914159826
   H        -6.0076172145        -2.0179342258         1.1119343846
   H        -5.1537639783        -2.0082440171        -0.4352092216
   H        -3.1840836394        -2.3205699651         3.4502828533
   H        -4.8911822145        -1.8566308029         3.2722825972
   H        -4.3802867299        -3.5225363468         2.9396343293
   H        -1.9002583637        -3.1242804588         1.6495438469
   H        -3.0489164265        -4.0788964595         0.6926947526
   H        -2.1875972169        -2.7193355411        -0.0398922455
   C        -0.4549081250         1.4572470086        -3.0639850424
   O        -0.6211678321         0.8508094345        -4.0617967484
   O        -0.3008449082         2.0619997673        -2.0725066041
