      27
best product-like step 145
   C        -2.5010000000        -0.5390000000        -0.0750000000
   C        -1.8270000000        -2.2830000000         1.1790000000
   H        -2.6570000000        -2.9940000000         1.0590000000
   C        -2.2240000000        -1.2660000000         2.2240000000
   H        -3.1420000000        -1.6090000000         2.7250000000
   B        -2.8070000000         0.8390000000        -0.9200000000
   N        -2.5150000000        -0.2160000000         1.2520000000
   N        -1.6650000000        -1.6090000000        -0.1450000000
   C        -3.3550000000         0.9360000000         1.6980000000
   H        -2.8070000000         1.6820000000         2.2700000000
   H        -3.6150000000         1.4020000000         0.7190000000
   H        -4.2850000000         0.6690000000         2.2240000000
   C        -1.3730000000        -2.5970000000        -1.1470000000
   H        -0.8950000000        -2.1700000000        -2.0410000000
   H        -0.7140000000        -3.3940000000        -0.7730000000
   H        -2.3020000000        -3.1100000000        -1.4440000000
   N        -1.0670000000         3.7180000000         0.3250000000
   N        -1.4640000000         2.6720000000        -0.0080000000
   H        -1.4930000000        -1.0180000000         2.9990000000
   H        -0.9060000000        -2.8300000000         1.3670000000
   C        -2.1260000000         1.1250000000        -2.9090000000
   H        -2.2970000000         1.7950000000        -3.7590000000
   H        -1.2820000000         1.6170000000        -2.3620000000
   H        -1.6600000000         0.1560000000        -3.1790000000
   C        -0.0720000000         0.7610000000         0.8810000000
   O         0.5090000000         0.2650000000         0.1600000000
   O        -0.3130000000         1.8320000000        -0.9910000000
