      27
final step 1000
   C        -3.4840000000        -1.5860000000         2.5590000000
   C        -5.6370000000        -1.1680000000         1.7780000000
   H        -5.7500000000        -0.0920000000         1.7930000000
   C        -5.7820000000        -1.5630000000         3.2440000000
   H        -6.0710000000        -0.6790000000         3.8430000000
   B        -3.9040000000        -1.2250000000        -6.5370000000
   N        -4.4230000000        -1.9990000000         3.5550000000
   N        -4.2090000000        -1.0590000000         1.5500000000
   C        -4.2760000000        -3.4480000000         4.0680000000
   H        -3.2050000000        -3.6670000000         4.1150000000
   H        -4.7940000000        -3.5860000000         5.0480000000
   H        -4.6600000000        -4.0730000000         3.2410000000
   C        -4.0550000000        -0.9110000000         0.1390000000
   H        -4.5050000000        -1.8110000000        -0.3010000000
   H        -4.5680000000        -0.0190000000        -0.2370000000
   H        -3.0070000000        -0.6720000000        -0.0400000000
   N         6.3780000000         2.5520000000        -0.5310000000
   N         6.5730000000         3.4310000000        -1.0800000000
   H        -6.4000000000        -2.4280000000         3.5110000000
   H        -6.2710000000        -1.6810000000         1.0400000000
   C        -6.8820000000         1.1380000000        -4.8000000000
   H        -6.6240000000         0.1730000000        -4.5850000000
   H        -6.4220000000         1.9690000000        -4.2590000000
   H        -7.6630000000         2.0960000000        -4.7670000000
   C         4.8300000000         4.9990000000         2.1960000000
   O         5.6090000000         5.9170000000         2.3750000000
   O        -2.8260000000        -1.6880000000        -7.2700000000
