      27
best TS-like step 69
   C        -2.2840000000         0.0790000000         0.1130000000
   C        -1.7190000000        -2.0980000000         0.9150000000
   H        -2.4590000000        -2.8660000000         0.6220000000
   C        -2.2960000000        -1.1780000000         2.0610000000
   H        -2.8980000000        -1.7560000000         2.7680000000
   B        -1.6270000000         1.3090000000        -0.8670000000
   N        -3.1170000000        -0.1300000000         1.3160000000
   N        -1.5500000000        -1.0560000000        -0.1350000000
   C        -4.1490000000         0.7370000000         2.1020000000
   H        -3.6830000000         1.5720000000         2.6470000000
   H        -4.8650000000         1.1550000000         1.3880000000
   H        -4.6830000000         0.0780000000         2.7950000000
   C        -1.1350000000        -1.1560000000        -1.5800000000
   H        -0.8560000000        -0.1810000000        -1.9260000000
   H        -0.2890000000        -1.8300000000        -1.7590000000
   H        -1.9990000000        -1.4220000000        -2.2030000000
   N        -2.1750000000         2.3700000000        -0.0050000000
   N        -3.3430000000         2.5020000000        -0.0180000000
   H        -1.4640000000        -0.6980000000         2.6090000000
   H        -0.7870000000        -2.6060000000         1.2070000000
   C        -2.4780000000         1.4400000000        -2.4710000000
   H        -3.4320000000         1.8580000000        -2.0820000000
   H        -2.2120000000         2.0430000000        -3.3530000000
   H        -2.7880000000         0.4440000000        -2.8120000000
   C         1.0360000000         0.4230000000         0.1570000000
   O         2.0990000000         0.1160000000         0.5220000000
   O         0.2750000000         0.4970000000        -0.7450000000
