      27
best bond-forming step 442
   C        -2.1730000000        -1.2600000000         0.5300000000
   C        -3.6530000000        -3.0570000000         1.4460000000
   H        -4.5970000000        -3.4400000000         1.0190000000
   C        -3.9040000000        -1.5750000000         2.0130000000
   H        -4.8900000000        -1.3160000000         1.5760000000
   B        -3.2470000000         1.4280000000        -2.6160000000
   N        -2.9180000000        -0.6380000000         1.4060000000
   N        -2.6650000000        -2.6460000000         0.4800000000
   C        -3.0130000000         0.9620000000         1.6630000000
   H        -3.0950000000         1.2380000000         2.7290000000
   H        -2.0350000000         1.4090000000         1.4670000000
   H        -3.8830000000         1.3270000000         1.1030000000
   C        -3.1030000000        -3.0310000000        -0.8870000000
   H        -4.1940000000        -2.9370000000        -0.9190000000
   H        -2.6710000000        -2.4250000000        -1.6930000000
   H        -2.9210000000        -4.1210000000        -1.0110000000
   N         1.6910000000         4.0290000000        -0.9480000000
   N         2.1950000000         3.9900000000         0.1270000000
   H        -3.9300000000        -1.4390000000         3.1120000000
   H        -3.3340000000        -3.7970000000         2.1990000000
   C        -1.1500000000        -0.1350000000        -3.4090000000
   H        -1.3300000000        -1.2120000000        -3.3710000000
   H        -0.6440000000         0.1470000000        -4.3460000000
   H        -0.5040000000        -0.1190000000        -2.5460000000
   C         1.5950000000         2.2260000000         1.0850000000
   O         2.0320000000         2.0710000000         2.0400000000
   O        -3.8560000000         1.4210000000        -1.8240000000
