      36
Step =        0, E =     -7.62659997
   C        -3.7172149155         2.6976135198        -0.8837441302
   C        -5.1060591968         4.1786133062         0.2613140899
   H        -5.5745636220         4.8773989923        -0.4523389543
   C        -3.6445552940         4.5360098797         0.5110945831
   H        -3.4280225812         5.6080270386         0.4981515624
   B        -3.0878975519         1.3213269575        -1.4744560949
   N        -3.0089569251         3.8215577170        -0.6063896405
   N        -4.9514300607         2.8385208441        -0.3306762416
   C        -1.6960649863         4.1823625593        -1.1305943340
   H        -0.9291537446         3.4404761588        -0.8855426066
   H        -1.7483462456         4.2913097271        -2.2221217788
   H        -1.4310304621         5.1554250862        -0.7013340554
   C        -5.9946248511         1.8353091564        -0.2038230603
   H        -6.7154451143         1.8720867017        -1.0342561583
   H        -5.5573560373         0.8342259860        -0.1538181091
   H        -6.5272801539         2.0179603812         0.7378399649
   N         1.1268073690       -13.5550453426        10.0446824470
   N         0.8307633891       -13.3318653113         8.9988893780
   H        -3.3043353630         4.1092853857         1.4720985245
   H        -5.7123429289         4.1395613474         1.1727097986
   C        -3.4440170717         0.5244592228        -2.8457062182
   C        -2.9844944423         1.2540735332        -4.1289439276
   C        -4.9590956866         0.2741315790        -2.9566521969
   C        -2.6997571708        -0.8275007226        -2.7946892810
   H        -5.5231581584         1.2179281621        -2.9477170110
   H        -5.2068256182        -0.2419740744        -3.8985586355
   H        -5.3252732733        -0.3497401537        -2.1303517175
   H        -3.0343093780        -1.4852455301        -3.6139622645
   H        -1.6165730966        -0.6797654049        -2.8979931712
   H        -2.8658867664        -1.3603476261        -1.8485317432
   H        -3.0161128128         0.5488285204        -4.9798817216
   H        -3.6439886811         2.0960529687        -4.3831336188
   H        -1.9558591662         1.6310011508        -4.0512284740
   C        -2.4865568756         0.6168350592        -0.2130420993
   O        -1.5747690928         1.2582700328        -0.9919040621
   O        -2.3747934036         0.0083870503         0.8284188736
