      36
best bond-forming step 124
   C        -2.6190000000         1.0540000000        -0.3670000000
   C        -4.5520000000         2.0460000000         0.6070000000
   H        -5.4360000000         1.3990000000         0.5360000000
   C        -4.2410000000         2.7080000000        -0.7200000000
   H        -5.0980000000         2.9280000000        -1.3640000000
   B        -1.3930000000         0.1520000000        -0.6040000000
   N        -3.4150000000         1.6430000000        -1.3140000000
   N        -3.3100000000         1.2530000000         0.8010000000
   C        -3.1230000000         1.6750000000        -2.7200000000
   H        -2.2340000000         2.2630000000        -2.9710000000
   H        -2.9850000000         0.6590000000        -3.1090000000
   H        -3.9950000000         2.1010000000        -3.2230000000
   C        -3.0360000000         0.7210000000         2.1100000000
   H        -2.0200000000         0.3160000000         2.1630000000
   H        -3.1180000000         1.5250000000         2.8510000000
   H        -3.7400000000        -0.0770000000         2.3820000000
   N        -0.8250000000         0.3600000000        -1.9310000000
   N        -0.4130000000         0.4340000000        -3.0100000000
   H        -3.6600000000         3.6280000000        -0.5600000000
   H        -4.6790000000         2.7310000000         1.4520000000
  Si        -1.4080000000        -1.6980000000         0.3860000000
   C        -0.4890000000        -1.7220000000         2.0500000000
   C        -0.5170000000        -2.7000000000        -0.9160000000
   C        -3.2530000000        -2.3660000000         0.5600000000
   H        -0.1060000000        -2.7380000000         2.2040000000
   H         0.3540000000        -1.0030000000         2.1020000000
   H        -1.1860000000        -1.4860000000         2.8520000000
   H        -1.1410000000        -2.6820000000        -1.8020000000
   H         0.4640000000        -2.2370000000        -1.1640000000
   H        -0.3390000000        -3.7450000000        -0.6120000000
   H        -3.2740000000        -3.4100000000         0.9060000000
   H        -3.8420000000        -1.7720000000         1.2650000000
   H        -3.7530000000        -2.3190000000        -0.4180000000
   C         1.7840000000         0.0180000000         0.3240000000
   O         1.9750000000         0.0960000000         1.4870000000
   O         1.6010000000        -0.0280000000        -0.8440000000
