      36
final step 1000
   C        -2.7150000000         0.6180000000        -0.2920000000
   C        -4.3250000000         2.0620000000         0.6360000000
   H        -5.0560000000         1.9810000000         1.4570000000
   C        -4.8270000000         1.4480000000        -0.6860000000
   H        -5.6080000000         0.6890000000        -0.4820000000
   B        -1.4220000000        -0.0940000000        -0.6840000000
   N        -3.6640000000         0.8210000000        -1.2490000000
   N        -3.1720000000         1.1890000000         0.8770000000
   C        -3.6370000000         0.4070000000        -2.6370000000
   H        -3.6510000000         1.2830000000        -3.3170000000
   H        -2.7710000000        -0.2220000000        -2.8310000000
   H        -4.5140000000        -0.2120000000        -2.8460000000
   C        -2.6170000000         1.1420000000         2.2150000000
   H        -2.0500000000         0.2190000000         2.3450000000
   H        -1.9720000000         2.0070000000         2.4500000000
   H        -3.4690000000         1.1280000000         2.9100000000
   N        -0.9200000000         0.4780000000        -1.8800000000
   N        -0.3300000000         1.0020000000        -2.7320000000
   H        -5.2460000000         2.1690000000        -1.4050000000
   H        -4.0170000000         3.1110000000         0.5260000000
  Si        -0.8650000000        -2.0620000000        -0.5410000000
   C        -1.5790000000        -2.7300000000         1.0880000000
   C         0.9860000000        -2.1280000000        -0.0400000000
   C        -1.3530000000        -3.1930000000        -1.9850000000
   H        -1.2130000000        -2.0200000000         1.8600000000
   H        -2.6780000000        -2.8580000000         1.1410000000
   H        -1.1030000000        -3.6750000000         1.3370000000
   H         1.7180000000        -1.7650000000        -0.7680000000
   H         1.0430000000        -1.4680000000         0.8480000000
   H         1.3140000000        -3.1200000000         0.3330000000
   H        -1.1030000000        -4.2200000000        -1.6960000000
   H        -2.4040000000        -3.1510000000        -2.2740000000
   H        -0.7440000000        -2.9170000000        -2.8500000000
   C         0.8550000000         1.6410000000         1.5790000000
   O         1.2160000000         0.8620000000         2.3810000000
   O         0.5150000000         2.3870000000         0.7460000000
