      36
best TS-like step 279
   C        -2.7020000000         1.1100000000        -0.5650000000
   C        -4.5310000000         1.7970000000         0.7390000000
   H        -5.1520000000         0.9110000000         0.9640000000
   C        -4.7370000000         2.3340000000        -0.7000000000
   H        -5.6870000000         2.0040000000        -1.1440000000
   B        -1.4630000000         0.1700000000        -0.8340000000
   N        -3.5940000000         1.7490000000        -1.4060000000
   N        -3.1050000000         1.4570000000         0.7040000000
   C        -3.5830000000         1.7330000000        -2.8470000000
   H        -2.7940000000         2.3660000000        -3.2450000000
   H        -3.4350000000         0.7130000000        -3.2220000000
   H        -4.5450000000         2.1090000000        -3.2050000000
   C        -2.2850000000         1.2810000000         1.8750000000
   H        -1.2490000000         1.1300000000         1.5620000000
   H        -2.3200000000         2.1860000000         2.4880000000
   H        -2.5990000000         0.4270000000         2.4880000000
   N        -1.0410000000         0.2080000000        -2.1780000000
   N        -0.6800000000         0.2040000000        -3.2780000000
   H        -4.7050000000         3.4320000000        -0.7340000000
   H        -4.7340000000         2.5600000000         1.4970000000
  Si        -1.0790000000        -1.7660000000         0.1550000000
   C        -0.5800000000        -2.1090000000         1.9850000000
   C         0.1210000000        -2.9460000000        -0.8270000000
   C        -2.8260000000        -2.3310000000         0.0600000000
   H         0.4450000000        -2.4910000000         2.0820000000
   H        -0.7200000000        -1.2490000000         2.6560000000
   H        -1.2780000000        -2.8920000000         2.3040000000
   H        -0.0620000000        -3.0040000000        -1.8900000000
   H         1.1850000000        -2.6560000000        -0.6610000000
   H         0.0340000000        -3.9550000000        -0.3860000000
   H        -2.9050000000        -3.3340000000         0.4890000000
   H        -3.4500000000        -1.6700000000         0.6710000000
   H        -3.2180000000        -2.3370000000        -0.9610000000
   C         1.5020000000         0.2700000000         1.0470000000
   O         0.7320000000         0.6340000000         1.8750000000
   O         2.2320000000        -0.0580000000         0.1730000000
