      36
best product-like step 144
   C        -2.6250000000         1.0210000000        -0.3900000000
   C        -4.5420000000         1.9770000000         0.6110000000
   H        -5.3840000000         1.2740000000         0.5460000000
   C        -4.2940000000         2.6620000000        -0.7330000000
   H        -5.2050000000         2.7960000000        -1.3230000000
   B        -1.3850000000         0.1570000000        -0.6600000000
   N        -3.4120000000         1.6640000000        -1.3320000000
   N        -3.2710000000         1.2660000000         0.8040000000
   C        -3.1670000000         1.6760000000        -2.7450000000
   H        -2.3240000000         2.3080000000        -3.0320000000
   H        -2.9910000000         0.6650000000        -3.1170000000
   H        -4.0530000000         2.0640000000        -3.2470000000
   C        -2.9690000000         0.8060000000         2.1170000000
   H        -1.9550000000         0.3970000000         2.1520000000
   H        -3.0200000000         1.6350000000         2.8320000000
   H        -3.6690000000         0.0270000000         2.4450000000
   N        -0.8570000000         0.3920000000        -1.9840000000
   N        -0.4430000000         0.4280000000        -3.0620000000
   H        -3.8010000000         3.6400000000        -0.6250000000
   H        -4.7300000000         2.6720000000         1.4340000000
  Si        -1.3150000000        -1.6690000000         0.3700000000
   C        -0.5010000000        -1.7830000000         2.0800000000
   C        -0.4810000000        -2.7620000000        -0.8800000000
   C        -3.1180000000        -2.3230000000         0.5140000000
   H        -0.0680000000        -2.7870000000         2.1530000000
   H         0.3120000000        -1.0710000000         2.3160000000
   H        -1.2330000000        -1.7180000000         2.8830000000
   H        -1.0950000000        -2.7380000000        -1.7800000000
   H         0.5090000000        -2.3600000000        -1.1710000000
   H        -0.3510000000        -3.8140000000        -0.5930000000
   H        -3.1910000000        -3.3710000000         0.8220000000
   H        -3.7310000000        -1.7450000000         1.2090000000
   H        -3.5920000000        -2.2360000000        -0.4700000000
   C         1.7040000000         0.0170000000         0.3920000000
   O         1.7480000000         0.1200000000         1.5610000000
   O         1.6230000000        -0.0250000000        -0.7720000000
