      44
final step 1000
   C        -2.3900000000        -0.1780000000         0.2140000000
   C        -3.9900000000         0.9400000000         1.6550000000
   H        -4.8780000000         0.5020000000         2.1320000000
   C        -4.2390000000         1.3480000000         0.2060000000
   H        -5.2750000000         1.1310000000        -0.0780000000
   B        -1.2080000000        -0.9360000000        -0.5160000000
   N        -3.2940000000         0.5430000000        -0.5400000000
   N        -2.9480000000        -0.1100000000         1.5620000000
   C        -3.1880000000         0.9220000000        -1.9200000000
   H        -3.1090000000         0.0560000000        -2.5770000000
   H        -4.0780000000         1.5340000000        -2.1400000000
   H        -2.3170000000         1.5470000000        -2.1230000000
   C        -2.5540000000        -0.3160000000         2.9380000000
   H        -3.3570000000         0.1300000000         3.5190000000
   H        -2.5400000000        -1.3780000000         3.2140000000
   H        -1.5980000000         0.1520000000         3.2130000000
   N        -0.3460000000        -0.4320000000        -1.5840000000
   N         0.2410000000        -0.3110000000        -2.5770000000
   H        -4.0500000000         2.4170000000         0.0330000000
   H        -3.6400000000         1.7960000000         2.2560000000
   C        -0.5260000000        -2.2190000000         0.1870000000
   C         0.7730000000        -1.8530000000         0.9400000000
   C        -0.2310000000        -3.1990000000        -0.9990000000
   C        -1.5230000000        -2.8930000000         1.1700000000
   H         0.2380000000        -4.1380000000        -0.6600000000
   H        -1.1390000000        -3.4520000000        -1.5650000000
   H         0.4160000000        -2.7320000000        -1.7510000000
   H        -1.7720000000        -3.9440000000         0.8650000000
   H        -1.1420000000        -2.9840000000         2.2050000000
   H        -2.4490000000        -2.4170000000         1.2140000000
   H         0.6580000000        -0.8820000000         1.4370000000
   H         1.0570000000        -2.5150000000         1.7750000000
   H         1.6010000000        -1.7740000000         0.2290000000
   C         0.7230000000         2.9660000000        -1.5060000000
   C        -0.0870000000         3.4510000000        -2.7050000000
   H        -1.0560000000         2.9850000000        -2.9130000000
   H        -0.1610000000         4.5400000000        -2.5580000000
   H         0.5850000000         3.4220000000        -3.5840000000
   N         0.2590000000         2.2160000000        -0.5790000000
   H         1.7250000000         3.4490000000        -1.4610000000
   C         1.1470000000         1.8080000000         0.4840000000
   H         1.5540000000         2.6880000000         1.0670000000
   H         0.5790000000         1.1270000000         1.1110000000
   H         1.9790000000         1.2040000000         0.0540000000
