      44
best product-like step 682
   C        -2.1770000000         0.2290000000         0.1130000000
   C        -3.5170000000         1.9190000000         0.9630000000
   H        -4.4740000000         1.5890000000         1.3860000000
   C        -3.6620000000         1.8590000000        -0.5750000000
   H        -4.7000000000         1.9860000000        -0.9010000000
   B        -1.1680000000        -0.9610000000        -0.2790000000
   N        -3.1190000000         0.5320000000        -0.8350000000
   N        -2.4720000000         0.8890000000         1.2930000000
   C        -3.3580000000        -0.3140000000        -2.0020000000
   H        -2.5270000000        -0.9780000000        -2.1690000000
   H        -4.2630000000        -0.9140000000        -1.9120000000
   H        -3.4310000000         0.3090000000        -2.9080000000
   C        -1.4210000000         1.0400000000         2.3690000000
   H        -0.4610000000         0.8660000000         1.8850000000
   H        -1.4140000000         2.0500000000         2.7950000000
   H        -1.5480000000         0.3170000000         3.1790000000
   N        -0.5190000000        -0.3980000000        -1.4060000000
   N        -0.2490000000         0.2640000000        -2.3040000000
   H        -3.0330000000         2.6300000000        -1.0340000000
   H        -3.2530000000         2.9050000000         1.3660000000
   C        -1.2260000000        -2.6180000000        -0.0650000000
   C         0.1730000000        -3.3600000000        -0.1830000000
   C        -2.1100000000        -3.3280000000        -1.2240000000
   C        -1.8880000000        -2.6010000000         1.3860000000
   H        -2.0290000000        -4.4260000000        -1.2070000000
   H        -3.1750000000        -3.0750000000        -1.1960000000
   H        -1.6890000000        -3.0340000000        -2.2010000000
   H        -2.6790000000        -3.2880000000         1.4830000000
   H        -1.1250000000        -2.8790000000         2.1180000000
   H        -2.2670000000        -1.5680000000         1.6610000000
   H         1.0180000000        -2.7410000000         0.1320000000
   H         0.1850000000        -4.2240000000         0.4980000000
   H         0.3270000000        -3.7320000000        -1.2120000000
   C         1.0070000000         2.6680000000        -0.5490000000
   C        -0.0790000000         3.2340000000        -1.4140000000
   H         0.1900000000         3.3610000000        -2.4680000000
   H        -0.9420000000         2.5800000000        -1.2800000000
   H        -0.3180000000         4.2500000000        -1.0400000000
   N         0.6610000000         1.7820000000         0.3130000000
   H         2.0690000000         2.9710000000        -0.5840000000
   C         1.7700000000         1.1190000000         0.9850000000
   H         2.6020000000         0.9860000000         0.2240000000
   H         2.2110000000         1.6350000000         1.8790000000
   H         1.5020000000         0.0860000000         1.3060000000
