      44
best bond-forming step 154
   C        -2.3580000000         0.7020000000        -0.2490000000
   C        -4.2550000000         1.7370000000         0.4650000000
   H        -4.9950000000         0.9050000000         0.4370000000
   C        -3.9650000000         2.2150000000        -0.9700000000
   H        -4.8830000000         2.1790000000        -1.5750000000
   B        -1.2260000000        -0.3360000000        -0.2070000000
   N        -2.9820000000         1.2380000000        -1.3650000000
   N        -2.9620000000         1.2570000000         0.8530000000
   C        -2.7500000000         0.9800000000        -2.7670000000
   H        -2.0490000000         1.7070000000        -3.2260000000
   H        -2.3670000000        -0.0290000000        -2.9420000000
   H        -3.7150000000         1.0400000000        -3.3040000000
   C        -2.6190000000         1.0590000000         2.2370000000
   H        -1.6830000000         0.5040000000         2.3220000000
   H        -2.4810000000         2.0310000000         2.7410000000
   H        -3.3990000000         0.4860000000         2.7730000000
   N        -0.5610000000        -0.1080000000        -1.4500000000
   N         0.0930000000         0.3290000000        -2.3130000000
   H        -3.5520000000         3.2480000000        -1.0220000000
   H        -4.6460000000         2.5420000000         1.1030000000
   C        -1.6090000000        -1.7590000000         0.5750000000
   C        -1.1960000000        -2.8780000000        -0.4100000000
   C        -3.1730000000        -1.8120000000         0.4320000000
   C        -1.2820000000        -2.3760000000         1.9820000000
   H        -3.5170000000        -2.8620000000         0.4240000000
   H        -3.6860000000        -1.2980000000         1.2560000000
   H        -3.5110000000        -1.3500000000        -0.5060000000
   H        -1.6200000000        -3.4180000000         1.9610000000
   H        -0.1980000000        -2.3170000000         2.2400000000
   H        -1.8400000000        -1.8970000000         2.8390000000
   H        -0.1140000000        -2.9790000000        -0.5830000000
   H        -1.5350000000        -3.8350000000         0.0150000000
   H        -1.6880000000        -2.7710000000        -1.3890000000
   C         1.9620000000         1.0350000000         0.2040000000
   C         2.0850000000         2.2530000000        -0.7020000000
   H         1.0850000000         2.5290000000        -1.0780000000
   H         2.5280000000         3.1070000000        -0.1700000000
   H         2.7310000000         2.0040000000        -1.5570000000
   N         1.8030000000        -0.0960000000        -0.3360000000
   H         2.1030000000         1.1730000000         1.3010000000
   C         1.8200000000        -1.2130000000         0.5240000000
   H         1.9650000000        -0.9550000000         1.6370000000
   H         0.8820000000        -1.7720000000         0.3250000000
   H         2.5980000000        -1.9250000000         0.1750000000
