      44
best TS-like step 580
   C        -2.0860000000         0.3800000000        -0.2780000000
   C        -3.1910000000         2.1310000000         0.8040000000
   H        -3.8360000000         1.8520000000         1.6570000000
   C        -3.9370000000         1.8210000000        -0.5010000000
   H        -5.0150000000         1.6740000000        -0.3580000000
   B        -1.1780000000        -0.8910000000        -0.5020000000
   N        -3.3040000000         0.5880000000        -0.9230000000
   N        -1.9820000000         1.2620000000         0.7890000000
   C        -3.7700000000        -0.0390000000        -2.1710000000
   H        -3.1200000000        -0.8650000000        -2.4490000000
   H        -4.8080000000        -0.4120000000        -2.0440000000
   H        -3.7780000000         0.6950000000        -2.9950000000
   C        -1.6540000000         0.9430000000         2.2030000000
   H        -0.6200000000         0.6270000000         2.3410000000
   H        -1.8780000000         1.8450000000         2.7820000000
   H        -2.3250000000         0.1520000000         2.5930000000
   N        -0.5470000000        -0.6110000000        -1.7260000000
   N         0.0510000000        -0.2540000000        -2.6340000000
   H        -3.7920000000         2.6610000000        -1.2160000000
   H        -2.9030000000         3.1850000000         0.8930000000
   C        -1.4100000000        -2.4800000000        -0.0440000000
   C        -0.0480000000        -3.2100000000        -0.2680000000
   C        -2.6990000000        -3.0600000000        -0.7890000000
   C        -1.8630000000        -2.6530000000         1.4320000000
   H        -2.9030000000        -4.0580000000        -0.3660000000
   H        -3.5640000000        -2.4170000000        -0.5640000000
   H        -2.6640000000        -3.1800000000        -1.8800000000
   H        -2.1770000000        -3.7490000000         1.5250000000
   H        -1.0760000000        -2.4580000000         2.1670000000
   H        -2.7510000000        -1.9870000000         1.6230000000
   H         0.5620000000        -3.0160000000         0.6310000000
   H        -0.1300000000        -4.3070000000        -0.3030000000
   H         0.4610000000        -2.8480000000        -1.1630000000
   C         1.1020000000         2.3440000000        -0.2430000000
   C        -0.1430000000         3.1030000000        -0.7190000000
   H         0.1430000000         3.9030000000        -1.4130000000
   H        -0.8430000000         2.4050000000        -1.2030000000
   H        -0.6650000000         3.5550000000         0.1350000000
   N         1.0750000000         1.4070000000         0.6260000000
   H         2.1000000000         2.7500000000        -0.4980000000
   C         2.4150000000         1.1530000000         1.2740000000
   H         3.2900000000         1.2930000000         0.6610000000
   H         2.4680000000         1.8410000000         2.1120000000
   H         2.4210000000         0.1780000000         1.7800000000
