      36
Step =        0, E =     -7.60851924
   C        -4.0612824133         0.5009339226         0.1461251725
   C        -4.2946774657         2.0464451940         1.8827539398
   H        -5.0923634550         2.3731910559         2.5595763571
   C        -4.3025884636         2.8043842800         0.5500140362
   H        -5.3081674404         3.1952456485         0.3099784658
   B        -3.6374421555        -0.8597047526        -0.4725623768
   N        -3.9013686061         1.7570367974        -0.3925226197
   N        -4.5077955720         0.6717148640         1.4340981387
   C        -3.7282566628         2.0980508880        -1.7861446470
   H        -2.8899649228         2.7977625180        -1.9094028942
   H        -3.5141363221         1.2011714523        -2.3669430975
   H        -4.6449574697         2.5520811313        -2.1982476074
   C        -4.9356394493        -0.3544665926         2.3590525588
   H        -5.8008005789         0.0155100164         2.9250926707
   H        -5.2561650617        -1.2423249526         1.8061311598
   H        -4.1427473357        -0.6494894234         3.0619723351
   N        -2.9855038027        -1.5883103451         0.5462489304
   N        -2.4438584638        -2.1723268513         1.3836380112
   H        -3.5940290200         3.6422786756         0.5338702472
   H        -3.3259342493         2.1480208667         2.4025510265
   C        -3.7063867734        -1.5128615390        -1.9590988332
   C        -2.4006179537        -1.2437068674        -2.7479332407
   C        -4.9513568930        -0.9931062617        -2.7490471043
   C        -3.8112949290        -3.0506142123        -1.8212125837
   H        -4.6682819512        -0.6170557406        -3.7424183997
   H        -5.6735415653        -1.8043158681        -2.9128772527
   H        -5.4923768034        -0.1914478968        -2.2321210720
   H        -2.9416187683        -3.4704599242        -1.2986001066
   H        -4.7121299742        -3.3561966368        -1.2732036774
   H        -3.8491114076        -3.5181616242        -2.8170035802
   H        -1.5333518379        -1.6659279962        -2.2220714684
   H        -2.4520357866        -1.7179420102        -3.7408702139
   H        -2.1942523057        -0.1780600155        -2.9027062734
   C         0.9932314994         0.8621180687         1.9038969073
   O         0.4478905806         1.1875435446         0.9188429592
   O         1.5519730677         0.5440365558         2.8895026314
