      44
best product-like step 928
   C        -2.2490000000         0.1890000000         0.2550000000
   C        -4.1550000000         0.8950000000         1.5150000000
   H        -5.0610000000         0.2710000000         1.4630000000
   C        -4.0750000000         1.7600000000         0.2350000000
   H        -4.9000000000         1.5040000000        -0.4370000000
   B        -1.1830000000        -0.7430000000        -0.4980000000
   N        -2.7900000000         1.3320000000        -0.4190000000
   N        -2.8940000000         0.1130000000         1.4870000000
   C        -2.9300000000         1.0670000000        -1.8670000000
   H        -1.9520000000         0.9290000000        -2.3170000000
   H        -3.5440000000         0.1630000000        -2.0490000000
   H        -3.3960000000         1.9260000000        -2.3510000000
   C        -2.3950000000        -0.1950000000         2.7900000000
   H        -1.3920000000        -0.6200000000         2.7900000000
   H        -2.2390000000         0.7350000000         3.3630000000
   H        -3.0960000000        -0.8740000000         3.2960000000
   N        -0.6110000000        -0.7070000000        -1.8040000000
   N        -0.1330000000        -0.6920000000        -2.8590000000
   H        -4.1670000000         2.8270000000         0.4840000000
   H        -4.2270000000         1.4880000000         2.4260000000
   C        -0.7610000000        -2.3330000000        -0.0590000000
   C         0.6020000000        -1.9900000000         0.5880000000
   C        -0.3060000000        -3.5200000000        -0.9910000000
   C        -1.7220000000        -2.8930000000         0.9630000000
   H         0.1480000000        -4.2390000000        -0.2910000000
   H        -1.0970000000        -4.0150000000        -1.5700000000
   H         0.4830000000        -3.1480000000        -1.6480000000
   H        -2.7560000000        -3.1480000000         0.5930000000
   H        -1.2570000000        -3.7690000000         1.4330000000
   H        -1.9010000000        -2.2250000000         1.7630000000
   H         0.5580000000        -0.9790000000         1.0270000000
   H         0.8830000000        -2.6290000000         1.4480000000
   H         1.4780000000        -1.9790000000        -0.0660000000
   C         0.5950000000         2.5790000000        -1.1940000000
   C        -0.2260000000         2.8280000000        -2.4950000000
   H        -0.6280000000         1.9710000000        -3.0370000000
   H        -0.9870000000         3.5640000000        -2.2140000000
   H         0.5270000000         3.3490000000        -3.1030000000
   N         0.5330000000         1.8190000000        -0.1730000000
   H         1.2180000000         3.4950000000        -1.1410000000
   C         1.3250000000         2.3030000000         0.9110000000
   H         1.6500000000         3.3910000000         0.8080000000
   H         0.7620000000         2.2310000000         1.8930000000
   H         2.2860000000         1.7960000000         1.0310000000
