      44
final step 1000
   C        -2.2470000000         0.0960000000         0.1170000000
   C        -4.0070000000         0.4760000000         1.4550000000
   H        -4.6520000000        -0.4240000000         1.3690000000
   C        -4.1480000000         1.3590000000         0.2460000000
   H        -5.0390000000         1.0950000000        -0.3360000000
   B        -1.3070000000        -0.8450000000        -0.5530000000
   N        -2.9920000000         0.9900000000        -0.5680000000
   N        -2.5920000000         0.1080000000         1.4820000000
   C        -3.0660000000         1.4000000000        -1.9990000000
   H        -2.3380000000         0.8770000000        -2.6230000000
   H        -4.0780000000         1.1700000000        -2.3730000000
   H        -2.8980000000         2.4830000000        -2.1060000000
   C        -2.2830000000        -0.6190000000         2.6810000000
   H        -1.2780000000        -1.0260000000         2.7060000000
   H        -2.4650000000         0.0610000000         3.5190000000
   H        -2.9620000000        -1.4740000000         2.8590000000
   N        -0.8390000000        -0.8360000000        -1.8900000000
   N        -0.3040000000        -1.0220000000        -2.9160000000
   H        -4.1640000000         2.4480000000         0.4630000000
   H        -4.2600000000         0.9940000000         2.3840000000
   C        -0.6280000000        -2.0720000000         0.3040000000
   C         0.6250000000        -1.4880000000         1.1180000000
   C        -0.2510000000        -3.0970000000        -0.7960000000
   C        -1.7430000000        -2.9190000000         1.0930000000
   H         0.2720000000        -3.9960000000        -0.4140000000
   H        -1.1150000000        -3.4830000000        -1.3450000000
   H         0.4380000000        -2.7050000000        -1.5600000000
   H        -1.9050000000        -3.8900000000         0.5940000000
   H        -1.3340000000        -3.2110000000         2.1120000000
   H        -2.7090000000        -2.3630000000         1.2460000000
   H         0.2300000000        -0.7670000000         1.8370000000
   H         1.1610000000        -2.2710000000         1.6810000000
   H         1.2990000000        -0.9170000000         0.4690000000
   C         0.6900000000         3.0370000000        -1.2470000000
   C        -0.1040000000         3.0300000000        -2.4980000000
   H        -0.5650000000         2.0720000000        -2.7300000000
   H        -0.9030000000         3.7860000000        -2.4930000000
   H         0.5240000000         3.2980000000        -3.3630000000
   N         0.6020000000         2.0510000000        -0.4340000000
   H         1.1930000000         3.9830000000        -0.9260000000
   C         1.2920000000         2.2090000000         0.8110000000
   H         0.9130000000         3.1530000000         1.2660000000
   H         1.0750000000         1.3680000000         1.4520000000
   H         2.3820000000         2.2270000000         0.6470000000
