      44
best bond-forming step 124
   C        -2.2670000000         0.7920000000        -0.2780000000
   C        -4.2720000000         1.7700000000         0.4450000000
   H        -5.0850000000         1.0290000000         0.4180000000
   C        -3.9320000000         2.2890000000        -0.9360000000
   H        -4.7540000000         2.3320000000        -1.6560000000
   B        -1.2100000000        -0.2640000000        -0.2690000000
   N        -2.9810000000         1.2270000000        -1.3470000000
   N        -2.9790000000         1.1260000000         0.8190000000
   C        -2.7050000000         1.0070000000        -2.7410000000
   H        -1.9510000000         1.6920000000        -3.1430000000
   H        -2.3570000000        -0.0150000000        -2.9120000000
   H        -3.6480000000         1.1090000000        -3.2840000000
   C        -2.7020000000         1.0030000000         2.2280000000
   H        -1.7940000000         0.4220000000         2.4210000000
   H        -2.5790000000         1.9970000000         2.6700000000
   H        -3.5390000000         0.4820000000         2.7080000000
   N        -0.4650000000        -0.0290000000        -1.5580000000
   N         0.1720000000         0.3710000000        -2.4550000000
   H        -3.4530000000         3.2760000000        -0.8570000000
   H        -4.5100000000         2.5370000000         1.1860000000
   C        -1.5890000000        -1.7330000000         0.6560000000
   C        -1.2650000000        -2.7170000000        -0.4630000000
   C        -3.0930000000        -1.7320000000         0.5340000000
   C        -1.2240000000        -2.3610000000         2.1300000000
   H        -3.4340000000        -2.7580000000         0.3480000000
   H        -3.6700000000        -1.3790000000         1.3940000000
   H        -3.4260000000        -1.1770000000        -0.3400000000
   H        -1.0720000000        -3.4990000000         1.9570000000
   H        -0.2970000000        -2.0270000000         2.6510000000
   H        -2.1000000000        -2.1980000000         2.7450000000
   H        -0.2510000000        -2.6530000000        -0.8620000000
   H        -1.4640000000        -3.7710000000        -0.2130000000
   H        -1.9000000000        -2.4830000000        -1.3160000000
   C         1.9090000000         0.9120000000         0.1430000000
   C         2.2260000000         2.2010000000        -0.6420000000
   H         1.3730000000         2.5310000000        -1.2490000000
   H         2.6000000000         3.0220000000        -0.0200000000
   H         2.9980000000         1.9810000000        -1.4020000000
   N         1.5650000000        -0.2300000000        -0.3260000000
   H         2.0430000000         0.9360000000         1.2440000000
   C         1.6180000000        -1.3930000000         0.5400000000
   H         1.9360000000        -1.1060000000         1.5620000000
   H         0.7200000000        -1.9550000000         0.6960000000
   H         2.4140000000        -2.0150000000         0.1340000000
