      44
best TS-like step 511
   C        -2.1540000000         0.3890000000        -0.1060000000
   C        -3.0890000000         2.4010000000         0.7340000000
   H        -3.4610000000         2.6340000000         1.7380000000
   C        -4.0820000000         1.7130000000        -0.0950000000
   H        -4.8080000000         1.0710000000         0.4300000000
   B        -1.1460000000        -0.8940000000        -0.5910000000
   N        -3.1870000000         0.8660000000        -0.8540000000
   N        -2.0220000000         1.3840000000         0.8780000000
   C        -3.7050000000         0.2860000000        -2.0560000000
   H        -3.1090000000        -0.5720000000        -2.3480000000
   H        -4.7590000000        -0.0390000000        -1.9330000000
   H        -3.6070000000         1.0510000000        -2.8500000000
   C        -2.0710000000         0.8160000000         2.2000000000
   H        -1.1300000000         0.2940000000         2.4260000000
   H        -2.2050000000         1.5660000000         2.9950000000
   H        -2.8990000000         0.0850000000         2.2390000000
   N        -0.2410000000        -0.5880000000        -1.6550000000
   N         0.5550000000        -0.2920000000        -2.4530000000
   H        -4.6340000000         2.3610000000        -0.7950000000
   H        -2.7370000000         3.3320000000         0.2720000000
   C        -1.4090000000        -2.4770000000        -0.1030000000
   C        -0.1730000000        -3.3110000000        -0.3690000000
   C        -2.7360000000        -2.7540000000        -0.9010000000
   C        -1.7890000000        -2.6190000000         1.3730000000
   H        -3.2860000000        -3.6700000000        -0.6050000000
   H        -3.3500000000        -1.8770000000        -0.6550000000
   H        -2.5950000000        -2.7530000000        -1.9890000000
   H        -2.8840000000        -2.4850000000         1.5380000000
   H        -1.4840000000        -3.6290000000         1.7860000000
   H        -1.2950000000        -1.8410000000         1.9710000000
   H         0.4420000000        -3.2320000000         0.5420000000
   H        -0.3880000000        -4.3760000000        -0.5580000000
   H         0.4520000000        -2.9420000000        -1.1960000000
   C         1.0220000000         2.0320000000        -0.3820000000
   C         0.1520000000         3.1590000000        -0.9150000000
   H         0.2530000000         4.0620000000        -0.2940000000
   H         0.4520000000         3.4340000000        -1.9360000000
   H        -0.9190000000         2.9350000000        -0.9390000000
   N         0.8140000000         1.2280000000         0.5970000000
   H         2.0590000000         1.9940000000        -0.7970000000
   C         2.0990000000         0.6060000000         1.0990000000
   H         2.8670000000         0.4780000000         0.3330000000
   H         2.4910000000         1.2980000000         1.8390000000
   H         1.8340000000        -0.3690000000         1.5320000000
