      32
best product-like step 109
   C        -2.5040000000         0.5590000000        -0.4900000000
   C        -4.2500000000         1.4180000000         0.8480000000
   H        -5.1520000000         0.7690000000         0.8600000000
   C        -4.1130000000         2.2460000000        -0.4310000000
   H        -5.0690000000         2.5020000000        -0.9090000000
   B        -1.3480000000        -0.3170000000        -0.9850000000
   N        -3.3200000000         1.3450000000        -1.2600000000
   N        -3.0210000000         0.6220000000         0.7880000000
   C        -3.1850000000         1.4460000000        -2.6770000000
   H        -2.4690000000         2.2280000000        -3.0070000000
   H        -2.8730000000         0.4800000000        -3.0980000000
   H        -4.1770000000         1.6730000000        -3.1050000000
   C        -2.3210000000         0.2160000000         1.9830000000
   H        -1.2530000000         0.0810000000         1.7720000000
   H        -2.4120000000         1.0140000000         2.7410000000
   H        -2.6920000000        -0.7300000000         2.4190000000
   N        -0.6610000000         0.2600000000        -2.1130000000
   N        -0.1440000000         0.8130000000        -2.9860000000
   H        -3.5500000000         3.1850000000        -0.2320000000
   H        -4.2670000000         2.0550000000         1.7480000000
   P        -1.1460000000        -2.2620000000        -0.4260000000
   C        -0.2360000000        -2.2270000000         1.2390000000
   C        -2.9310000000        -2.4570000000         0.1050000000
   H        -3.3080000000        -1.7070000000         0.8080000000
   H        -3.5340000000        -2.3540000000        -0.8110000000
   H        -3.1250000000        -3.4470000000         0.5440000000
   H         0.2420000000        -3.2090000000         1.4020000000
   H         0.5290000000        -1.4480000000         1.2780000000
   H        -0.9200000000        -2.0790000000         2.0950000000
   C         2.0440000000        -0.0830000000         0.3610000000
   O         2.5190000000         0.0500000000         1.4170000000
   O         1.5840000000        -0.2170000000        -0.6940000000
