      32
final step 1000
   C        -2.6910000000         0.0510000000        -0.8730000000
   C        -4.4930000000         1.1690000000        -0.0160000000
   H        -5.1280000000         0.4000000000         0.4480000000
   C        -4.5570000000         1.1470000000        -1.5360000000
   H        -5.5680000000         1.0430000000        -1.9500000000
   B        -1.3020000000        -0.6260000000        -0.9230000000
   N        -3.6690000000         0.0340000000        -1.8460000000
   N        -3.0870000000         0.8700000000         0.1510000000
   C        -3.5100000000        -0.4050000000        -3.2340000000
   H        -4.4210000000        -0.9500000000        -3.5540000000
   H        -3.3580000000         0.4550000000        -3.9070000000
   H        -2.6570000000        -1.0730000000        -3.3090000000
   C        -2.4140000000         0.9630000000         1.4350000000
   H        -1.5400000000         0.3090000000         1.4300000000
   H        -2.0980000000         1.9970000000         1.6490000000
   H        -3.1060000000         0.6210000000         2.2330000000
   N        -0.4000000000         0.2280000000        -1.5390000000
   N         0.2670000000         1.0800000000        -1.9960000000
   H        -4.1100000000         2.0880000000        -1.9120000000
   H        -4.7570000000         2.1570000000         0.3780000000
   P        -0.5260000000        -2.2020000000        -0.0970000000
   C        -1.9100000000        -3.3230000000        -0.6680000000
   C         0.7820000000        -2.5010000000        -1.4580000000
   H         0.3650000000        -2.4530000000        -2.4740000000
   H         1.5670000000        -1.7330000000        -1.4300000000
   H         1.2780000000        -3.4830000000        -1.3790000000
   H        -2.8750000000        -2.8130000000        -0.5140000000
   H        -1.7570000000        -3.4770000000        -1.7440000000
   H        -1.9270000000        -4.2810000000        -0.1560000000
   C         1.2210000000         1.5660000000         2.3710000000
   O         1.2880000000         1.6230000000         3.5330000000
   O         1.1690000000         1.5110000000         1.2090000000
