      32
best bond-forming step 110
   C        -2.5020000000         0.5590000000        -0.4910000000
   C        -4.2510000000         1.4160000000         0.8460000000
   H        -5.1520000000         0.7660000000         0.8550000000
   C        -4.1150000000         2.2460000000        -0.4320000000
   H        -5.0710000000         2.5010000000        -0.9120000000
   B        -1.3460000000        -0.3170000000        -0.9890000000
   N        -3.3220000000         1.3430000000        -1.2600000000
   N        -3.0200000000         0.6220000000         0.7850000000
   C        -3.1860000000         1.4450000000        -2.6760000000
   H        -2.4710000000         2.2280000000        -3.0040000000
   H        -2.8730000000         0.4800000000        -3.0970000000
   H        -4.1780000000         1.6680000000        -3.1060000000
   C        -2.3200000000         0.2210000000         1.9830000000
   H        -1.2520000000         0.0850000000         1.7760000000
   H        -2.4130000000         1.0210000000         2.7370000000
   H        -2.6900000000        -0.7260000000         2.4200000000
   N        -0.6610000000         0.2620000000        -2.1150000000
   N        -0.1440000000         0.8170000000        -2.9900000000
   H        -3.5530000000         3.1850000000        -0.2320000000
   H        -4.2680000000         2.0490000000         1.7490000000
   P        -1.1440000000        -2.2630000000        -0.4250000000
   C        -0.2330000000        -2.2270000000         1.2390000000
   C        -2.9250000000        -2.4570000000         0.1030000000
   H        -3.3090000000        -1.7090000000         0.8060000000
   H        -3.5320000000        -2.3570000000        -0.8130000000
   H        -3.1250000000        -3.4450000000         0.5410000000
   H         0.2500000000        -3.2070000000         1.3950000000
   H         0.5270000000        -1.4460000000         1.2810000000
   H        -0.9190000000        -2.0830000000         2.0960000000
   C         2.0410000000        -0.0840000000         0.3660000000
   O         2.5140000000         0.0510000000         1.4240000000
   O         1.5810000000        -0.2190000000        -0.6910000000
