      36
Step =        0, E =      0.00000000
   C        -2.0094719620        -0.3379174156         0.5740420395
   C        -0.7170451904         0.6894239489         2.2358656593
   H        -0.0312860768         1.4874406342         1.9014590087
   C        -0.1530202395        -0.7057194150         1.9530763041
   H         0.9299417468        -0.6912811480         1.7610074329
   B        -3.0920155027        -0.6098848213        -0.4500286588
   N        -0.8801688120        -1.0893297079         0.7553760317
   N        -1.9552368699         0.7069141032         1.4682743000
   C        -0.3687159791        -2.0781014901        -0.1567639080
   H        -0.7494010055        -3.0950683252         0.0436745569
   H        -0.6601952260        -1.8043940807        -1.1820278144
   H         0.7294857814        -2.0983691193        -0.0890395962
   C        -3.1195338434         1.3507689158         2.0248806552
   H        -4.0114903684         1.0047076003         1.4916598737
   H        -3.2360228259         1.0925526207         3.0936445058
   H        -3.0589285415         2.4479829511         1.9401466697
   N        -3.2129383008        -2.0057417602        -0.7055460361
   N        -3.3724336833        -3.1183942687        -0.8839727503
   H        -0.3417544331        -1.4096686850         2.7846658620
   H        -0.9239296095         0.8483452453         3.3047256002
   C        -4.0502272549         0.3724231138        -1.3190030062
   C        -4.0844054364        -0.1412690869        -2.7729245240
   C        -3.4834244468         1.8016559953        -1.3571493940
   C        -5.5019236686         0.4090514964        -0.8062869385
   H        -4.0896712456         2.4394202136        -2.0249454516
   H        -3.4783812720         2.2831572074        -0.3686456759
   H        -2.4478645168         1.8088058745        -1.7336616049
   H        -5.9402606748        -0.6016956508        -0.7829695737
   H        -5.5752786867         0.8202685339         0.2133950804
   H        -6.1399244273         1.0356248067        -1.4563033495
   H        -4.4906609461        -1.1636001852        -2.8393891042
   H        -4.7223361208         0.5060338002        -3.4008717223
   H        -3.0757197789        -0.1541419015        -3.2163644715
   C         2.6458860429         0.0000000000         0.0000000000
   O         3.4893459663         0.7996297498         0.0269689699
   O         1.8024261196        -0.7996297498        -0.0269689699
