      39
best TS-like step 95
   C        -2.5410000000         0.9050000000        -0.2150000000
   C        -4.4770000000         2.0390000000         0.4360000000
   H        -5.4450000000         1.5280000000         0.3880000000
   C        -3.9440000000         2.4610000000        -0.9510000000
   H        -4.7490000000         2.7250000000        -1.6380000000
   B        -1.4250000000        -0.1190000000        -0.2600000000
   N        -3.1760000000         1.3400000000        -1.3730000000
   N        -3.4100000000         1.1380000000         0.8650000000
   C        -2.9210000000         1.1730000000        -2.8050000000
   H        -2.0680000000         1.7490000000        -3.1720000000
   H        -2.7910000000         0.1340000000        -3.0860000000
   H        -3.8190000000         1.5640000000        -3.2860000000
   C        -2.9570000000         1.0210000000         2.2280000000
   H        -2.0640000000         0.4010000000         2.2350000000
   H        -2.6980000000         1.9990000000         2.6580000000
   H        -3.7040000000         0.5570000000         2.8770000000
   N        -0.9090000000        -0.0050000000        -1.6340000000
   N        -0.3340000000         0.3220000000        -2.5910000000
   H        -3.2820000000         3.3370000000        -0.8450000000
   H        -4.5870000000         2.9320000000         1.0620000000
   C        -1.4930000000        -1.5750000000         0.5880000000
   C        -1.3390000000        -2.5680000000        -0.5830000000
   C        -3.0050000000        -1.8240000000         1.0020000000
   C        -0.4460000000        -1.8570000000         1.7300000000
   H        -3.1540000000        -2.9040000000         1.1030000000
   H        -3.3350000000        -1.3540000000         1.9260000000
   H        -3.6520000000        -1.4770000000         0.1840000000
   H         0.5570000000        -1.8410000000         1.3520000000
   H        -0.4460000000        -1.1640000000         2.5720000000
   H        -0.6320000000        -2.8770000000         2.1330000000
   H        -0.3750000000        -2.4740000000        -1.0700000000
   H        -1.4410000000        -3.6160000000        -0.2420000000
   H        -2.1110000000        -2.3880000000        -1.3380000000
   C         2.2960000000         0.1310000000         1.0340000000
   C         3.1050000000         0.0120000000        -0.3380000000
   H         2.3740000000         0.4490000000        -1.0350000000
   H         4.0700000000         0.5340000000        -0.3430000000
   H         3.2460000000        -1.0490000000        -0.5130000000
   N         1.5250000000         0.1360000000         1.9040000000
