      39
final step 1000
   C        -2.8230000000         0.1070000000        -0.4070000000
   C        -4.6870000000         1.3350000000         0.3350000000
   H        -5.5860000000         0.8690000000         0.7750000000
   C        -4.6320000000         1.0940000000        -1.1800000000
   H        -5.5510000000         1.0730000000        -1.7700000000
   B        -1.3000000000        -0.3640000000        -0.5440000000
   N        -3.8310000000        -0.1420000000        -1.3640000000
   N        -3.4910000000         0.5960000000         0.6680000000
   C        -3.3630000000        -0.2180000000        -2.7050000000
   H        -3.0840000000         0.7770000000        -3.0900000000
   H        -2.4240000000        -0.7780000000        -2.7550000000
   H        -4.0660000000        -0.7340000000        -3.3760000000
   C        -2.9300000000         0.6650000000         1.9650000000
   H        -3.5030000000         0.0470000000         2.6770000000
   H        -1.9160000000         0.2670000000         1.9360000000
   H        -2.9250000000         1.7040000000         2.3060000000
   N        -0.4600000000         0.4330000000        -1.3910000000
   N         0.0880000000         1.2860000000        -1.9140000000
   H        -4.0070000000         1.9020000000        -1.6110000000
   H        -4.6080000000         2.3950000000         0.5980000000
   C        -0.7530000000        -1.7920000000         0.3760000000
   C         0.2610000000        -2.5070000000        -0.5900000000
   C        -1.9580000000        -2.8290000000         0.1630000000
   C        -0.0850000000        -1.8050000000         1.7300000000
   H        -1.8480000000        -3.4550000000         1.0570000000
   H        -2.9590000000        -2.3960000000         0.0840000000
   H        -1.7500000000        -3.4960000000        -0.6770000000
   H        -0.1070000000        -2.8780000000         2.0060000000
   H         0.9870000000        -1.5910000000         1.5890000000
   H        -0.4910000000        -1.2350000000         2.5530000000
   H         1.2310000000        -1.9860000000        -0.6000000000
   H         0.3800000000        -3.5510000000        -0.2680000000
   H        -0.1150000000        -2.6030000000        -1.6240000000
   C         1.3760000000         2.4150000000         1.0940000000
   C         2.0500000000         1.9810000000         2.3540000000
   H         2.9340000000         2.4730000000         2.7590000000
   H         1.2730000000         2.2620000000         3.1010000000
   H         2.1810000000         0.8980000000         2.2490000000
   N         0.8410000000         2.6970000000         0.0950000000
