      39
best bond-forming step 69
   C        -2.6440000000         0.8080000000        -0.2130000000
   C        -4.4450000000         2.1260000000         0.4240000000
   H        -5.4500000000         1.6880000000         0.3180000000
   C        -3.9090000000         2.5750000000        -0.9440000000
   H        -4.7070000000         2.8040000000        -1.6590000000
   B        -1.3500000000        -0.0140000000        -0.0260000000
   N        -3.1340000000         1.3850000000        -1.3880000000
   N        -3.4620000000         1.1060000000         0.8100000000
   C        -2.8720000000         1.2290000000        -2.8650000000
   H        -1.9560000000         1.7370000000        -3.1970000000
   H        -2.8020000000         0.1770000000        -3.1470000000
   H        -3.7450000000         1.6370000000        -3.3980000000
   C        -2.9800000000         0.9520000000         2.1740000000
   H        -2.0790000000         0.3420000000         2.1730000000
   H        -2.6910000000         1.9260000000         2.6060000000
   H        -3.7270000000         0.4590000000         2.8080000000
   N        -1.0250000000        -0.0210000000        -1.6030000000
   N        -0.1880000000         0.2780000000        -2.2980000000
   H        -3.2540000000         3.4580000000        -0.8350000000
   H        -4.4730000000         2.9110000000         1.1920000000
   C        -1.6560000000        -1.6250000000         0.5180000000
   C        -1.4330000000        -2.6940000000        -0.6570000000
   C        -3.1380000000        -1.8500000000         0.9840000000
   C        -0.5700000000        -1.7710000000         1.6260000000
   H        -3.3200000000        -2.8870000000         1.3030000000
   H        -3.4410000000        -1.2360000000         1.8260000000
   H        -3.8520000000        -1.6410000000         0.1660000000
   H         0.3940000000        -1.5790000000         1.1940000000
   H        -0.7210000000        -0.9800000000         2.3740000000
   H        -0.5400000000        -2.7420000000         2.1710000000
   H        -0.4890000000        -2.5690000000        -1.1810000000
   H        -1.4800000000        -3.7320000000        -0.2680000000
   H        -2.2390000000        -2.6070000000        -1.4060000000
   C         2.6830000000         0.0590000000         1.0510000000
   C         2.6410000000        -0.0010000000        -0.5520000000
   H         1.6860000000         0.4190000000        -0.9330000000
   H         3.4480000000         0.5430000000        -1.0830000000
   H         2.6460000000        -1.0110000000        -0.9570000000
   N         2.1570000000         0.1690000000         2.1020000000
