      36
best TS-like step 282
   C        -2.5780000000         1.0620000000        -0.2520000000
   C        -4.1240000000         2.3940000000         0.9070000000
   H        -5.1160000000         1.9590000000         1.0920000000
   C        -4.0430000000         2.8360000000        -0.5330000000
   H        -5.0000000000         3.0500000000        -0.9990000000
   B        -1.2000000000         0.3990000000        -0.7450000000
   N        -3.4270000000         1.6510000000        -1.1390000000
   N        -3.1080000000         1.3370000000         1.0450000000
   C        -3.1680000000         1.6710000000        -2.5540000000
   H        -2.3810000000         2.4010000000        -2.8120000000
   H        -2.8660000000         0.6990000000        -2.9290000000
   H        -4.0800000000         1.9340000000        -3.1070000000
   C        -3.5330000000         0.3590000000         2.1310000000
   H        -3.4060000000        -0.6630000000         1.8600000000
   H        -2.9970000000         0.5600000000         3.0620000000
   H        -4.6210000000         0.5040000000         2.3020000000
   N        -1.2820000000        -0.2900000000        -2.1020000000
   N        -1.2130000000        -1.0400000000        -2.9570000000
   H        -3.3810000000         3.7010000000        -0.6580000000
   H        -3.9290000000         3.1910000000         1.6310000000
   C        -0.5790000000        -0.8410000000         0.4000000000
   C         0.1830000000        -2.5260000000         0.2330000000
   C        -1.7580000000        -1.4530000000        -0.2620000000
   C        -0.9550000000        -0.1980000000         1.7860000000
   H        -2.1610000000        -2.2510000000         0.2840000000
   H        -2.5990000000        -0.7900000000        -0.4650000000
   H        -1.3520000000        -1.9050000000        -1.1700000000
   H        -1.6690000000         0.5710000000         1.5750000000
   H        -1.2670000000        -0.9500000000         2.5290000000
   H        -0.1040000000         0.3330000000         2.1860000000
   H         0.9670000000        -2.4680000000         0.9610000000
   H        -0.4290000000        -3.3930000000         0.4420000000
   H         0.6640000000        -2.5780000000        -0.7410000000
   C         1.4170000000        -0.8590000000         0.1880000000
   O         1.4940000000        -0.6250000000         1.3530000000
   O         1.7160000000        -1.0530000000        -0.9530000000
