      36
best bond-forming step 592
   C        -2.7090000000         0.9000000000         0.0450000000
   C        -4.3440000000         2.2200000000         0.3780000000
   H        -5.3430000000         1.8260000000         0.0650000000
   C        -3.2480000000         2.9180000000        -0.6510000000
   H        -3.9670000000         3.3690000000        -1.4510000000
   B        -2.2400000000        -0.9680000000         0.2240000000
   N        -2.1710000000         1.9960000000        -0.7610000000
   N        -3.4330000000         1.0130000000         1.0460000000
   C        -1.4230000000         2.7210000000        -2.0890000000
   H        -0.7390000000         3.3380000000        -1.7390000000
   H        -0.7430000000         1.8370000000        -2.6870000000
   H        -2.0020000000         3.1920000000        -2.8150000000
   C        -3.9370000000        -0.1620000000         1.7870000000
   H        -3.3170000000        -0.9470000000         1.7400000000
   H        -3.8000000000         0.0960000000         2.8960000000
   H        -4.8650000000        -0.2460000000         1.3440000000
   N         0.0340000000         0.6260000000        -1.1620000000
   N        -0.0880000000        -1.5560000000        -1.6870000000
   H        -2.9300000000         3.7640000000        -0.0840000000
   H        -4.3240000000         2.7370000000         1.3950000000
   C         0.2290000000         0.1280000000        -0.0140000000
   C         0.9340000000        -0.9390000000         0.6420000000
   C         0.9500000000         1.3640000000         0.2390000000
   C        -0.5910000000         0.0400000000         2.7600000000
   H         1.1300000000         1.2930000000        -1.1870000000
   H         0.9040000000         2.7420000000         1.5150000000
   H         2.5970000000         1.9960000000         1.1500000000
   H        -1.0360000000         1.0070000000         2.4440000000
   H        -0.5940000000        -0.9320000000         2.4410000000
   H         0.6380000000         0.2220000000         3.5020000000
   H         2.0750000000        -0.6860000000         1.1600000000
   H         0.5250000000        -1.9240000000         0.6110000000
   H         1.6670000000        -0.8820000000        -0.3110000000
   C        -0.8330000000        -2.3020000000        -1.6160000000
   O        -2.1400000000        -2.1580000000         0.2120000000
   O        -1.3870000000        -3.4290000000        -2.6230000000
