      36
final step 2000
   C        -2.4530000000         0.9160000000        -0.1100000000
   C        -4.0670000000         1.8600000000         0.7490000000
   H        -5.1490000000         1.6410000000         0.4250000000
   C        -3.4140000000         2.7730000000        -0.2800000000
   H        -4.1270000000         3.1850000000        -1.0460000000
   B        -0.8950000000        -0.2840000000        -0.3690000000
   N        -2.1910000000         2.0750000000        -0.7910000000
   N        -3.3480000000         0.7000000000         0.7860000000
   C        -1.4830000000         2.7140000000        -1.8960000000
   H        -0.9770000000         3.3770000000        -1.5420000000
   H        -0.9060000000         1.7010000000        -2.2640000000
   H        -2.0840000000         2.7640000000        -2.8290000000
   C        -3.6410000000        -0.3250000000         1.7770000000
   H        -2.8650000000        -1.1980000000         1.4740000000
   H        -3.4220000000         0.0910000000         2.5750000000
   H        -4.5930000000        -0.7250000000         1.3150000000
   N        -0.5940000000        -0.2790000000        -1.6490000000
   N        -0.8060000000        -1.3740000000        -2.2360000000
   H        -3.0780000000         3.7580000000         0.2050000000
   H        -4.3000000000         2.4460000000         1.7240000000
   C         0.0260000000         0.1450000000         0.6990000000
   C         1.2330000000        -0.8380000000         0.5520000000
   C         0.6940000000         1.5410000000         0.4370000000
   C        -0.3140000000         0.1110000000         2.1520000000
   H         0.9640000000         1.5800000000        -0.6960000000
   H         0.0200000000         2.3220000000         0.5940000000
   H         1.6070000000         1.8950000000         0.9350000000
   H        -1.1040000000         0.7810000000         2.2270000000
   H        -0.6690000000        -0.9080000000         2.2730000000
   H         0.6910000000         0.2070000000         2.6730000000
   H         2.0170000000        -0.6600000000         1.0710000000
   H         1.1300000000        -1.9110000000         0.3840000000
   H         1.8220000000        -0.7760000000        -0.5980000000
   C        -1.4490000000        -2.2150000000        -1.4170000000
   O        -1.6740000000        -1.6130000000        -0.2190000000
   O        -1.6640000000        -3.3030000000        -1.4460000000
