      36
best product-like step 631
   C        -2.3980000000         1.4790000000        -0.1080000000
   C        -4.5820000000         2.5870000000         0.5230000000
   H        -5.1830000000         2.0100000000        -0.1280000000
   C        -3.7350000000         3.3410000000        -0.4210000000
   H        -4.2140000000         3.6150000000        -1.3570000000
   B        -1.8160000000        -1.0120000000        -0.0660000000
   N        -2.8740000000         2.1910000000        -1.1240000000
   N        -3.5660000000         1.3320000000         0.5530000000
   C        -1.5200000000         2.5070000000        -1.7230000000
   H        -0.8850000000         3.4030000000        -1.4660000000
   H        -0.5280000000         1.6210000000        -1.7550000000
   H        -1.4840000000         2.9540000000        -2.6800000000
   C        -3.8920000000         0.0180000000         1.1620000000
   H        -3.1790000000        -1.0340000000         1.0860000000
   H        -4.0940000000         0.0430000000         2.2680000000
   H        -4.8610000000        -0.2780000000         0.7280000000
   N        -1.3370000000        -0.5210000000        -1.1050000000
   N        -0.4920000000        -1.2980000000        -1.6580000000
   H        -3.0000000000         3.9400000000         0.0530000000
   H        -4.7210000000         2.5450000000         1.6320000000
   C         0.6160000000        -0.1550000000         0.5430000000
   C         1.8650000000        -1.6290000000         0.3870000000
   C         1.2070000000         1.2350000000         0.2840000000
   C        -0.3960000000        -0.3410000000         2.5360000000
   H         2.3490000000         1.1950000000         0.1630000000
   H        -0.2540000000         2.2820000000         1.6470000000
   H         1.9920000000         2.0540000000         1.3100000000
   H        -0.7630000000         0.5890000000         2.7950000000
   H        -0.8070000000        -1.3340000000         2.4740000000
   H         0.6860000000         0.0390000000         3.2310000000
   H         2.4230000000        -1.0990000000         1.3790000000
   H         0.9390000000        -2.1620000000         0.5590000000
   H         2.0640000000        -1.2340000000        -0.5650000000
   C        -1.1500000000        -2.2050000000        -1.0660000000
   O        -1.1850000000        -2.0070000000         0.2600000000
   O        -1.1230000000        -3.0170000000        -2.3630000000
