      36
final step 1000
   C        -2.3440000000         0.0330000000        -0.0040000000
   C        -3.9950000000         0.7950000000         1.5440000000
   H        -4.8900000000         0.1780000000         1.7420000000
   C        -4.1750000000         1.5420000000         0.1760000000
   H        -5.1230000000         1.2880000000        -0.3290000000
   B        -1.2070000000        -0.7090000000        -0.6930000000
   N        -3.0370000000         1.0790000000        -0.6250000000
   N        -2.7890000000        -0.0880000000         1.3250000000
   C        -2.9420000000         1.6870000000        -1.9980000000
   H        -3.0390000000         0.9630000000        -2.8100000000
   H        -3.7990000000         2.3780000000        -2.0650000000
   H        -2.0450000000         2.2880000000        -2.1460000000
   C        -1.9460000000        -0.4880000000         2.4870000000
   H        -1.9900000000        -1.5650000000         2.6910000000
   H        -0.9080000000        -0.1730000000         2.3460000000
   H        -2.3350000000         0.0350000000         3.3720000000
   N        -0.7640000000        -0.0290000000        -1.8590000000
   N        -0.2080000000         0.5030000000        -2.7210000000
   H        -4.1710000000         2.6350000000         0.3030000000
   H        -3.8470000000         1.4360000000         2.4250000000
   C        -0.9570000000        -2.3860000000        -0.4540000000
   C        -0.8710000000        -3.0750000000        -1.8630000000
   C        -2.1480000000        -3.1580000000         0.1840000000
   C         0.4020000000        -2.6660000000         0.2440000000
   H        -1.9620000000        -4.2350000000         0.0720000000
   H        -2.3470000000        -2.9720000000         1.2440000000
   H        -3.0320000000        -2.8930000000        -0.4020000000
   H         1.2420000000        -2.1220000000        -0.2140000000
   H         0.4440000000        -2.4560000000         1.3190000000
   H         0.6630000000        -3.7270000000         0.1300000000
   H         0.0410000000        -2.8390000000        -2.4410000000
   H        -0.8520000000        -4.1650000000        -1.7430000000
   H        -1.7380000000        -2.8600000000        -2.4950000000
   C         0.2750000000         3.0770000000         0.2900000000
   O         0.6610000000         3.0650000000         1.3880000000
   O        -0.1190000000         2.9240000000        -0.7990000000
