      36
best bond-forming step 714
   C        -2.3730000000         0.3680000000        -0.0930000000
   C        -3.2780000000         2.0240000000         1.2730000000
   H        -3.8920000000         1.8620000000         2.1740000000
   C        -4.1420000000         1.9160000000         0.0050000000
   H        -5.1150000000         1.4480000000         0.2320000000
   B        -1.4590000000        -0.6210000000        -0.8540000000
   N        -3.3290000000         1.0460000000        -0.8290000000
   N        -2.2710000000         0.9630000000         1.1420000000
   C        -3.9970000000         0.4380000000        -1.9590000000
   H        -3.4970000000        -0.4900000000        -2.2550000000
   H        -5.0430000000         0.2030000000        -1.6860000000
   H        -4.0020000000         1.1220000000        -2.8260000000
   C        -1.8690000000         0.4160000000         2.4010000000
   H        -0.7980000000         0.1920000000         2.4540000000
   H        -2.1170000000         1.1580000000         3.1690000000
   H        -2.4200000000        -0.5160000000         2.6320000000
   N        -0.8700000000         0.1760000000        -1.9290000000
   N        -0.2190000000         0.6710000000        -2.7520000000
   H        -4.3300000000         2.8830000000        -0.4880000000
   H        -2.8050000000         3.0140000000         1.3430000000
   C        -1.0400000000        -2.1970000000        -0.6300000000
   C        -0.6260000000        -3.1020000000        -1.8150000000
   C        -2.1950000000        -2.8780000000         0.0650000000
   C         0.0320000000        -2.1970000000         0.4670000000
   H        -1.8880000000        -3.8340000000         0.5210000000
   H        -2.5840000000        -2.2710000000         0.8940000000
   H        -3.0530000000        -3.0860000000        -0.5860000000
   H         0.9990000000        -1.7690000000         0.1810000000
   H        -0.3700000000        -1.6030000000         1.2930000000
   H         0.1550000000        -3.2240000000         0.8500000000
   H         0.2180000000        -2.6840000000        -2.4060000000
   H        -0.3130000000        -4.0860000000        -1.4030000000
   H        -1.4650000000        -3.3280000000        -2.4770000000
   C         0.4970000000         1.7830000000         0.6360000000
   O         0.4260000000         0.6190000000         0.7450000000
   O         0.5770000000         2.9440000000         0.5310000000
