      36
best TS-like step 197
   C        -2.4160000000         0.9210000000        -0.3360000000
   C        -4.1510000000         2.0570000000         0.7360000000
   H        -4.8820000000         1.2320000000         0.8560000000
   C        -4.1210000000         2.5400000000        -0.7260000000
   H        -5.1060000000         2.5190000000        -1.2150000000
   B        -1.4490000000        -0.3160000000        -0.5540000000
   N        -3.1910000000         1.5550000000        -1.3560000000
   N        -2.7660000000         1.5380000000         0.8810000000
   C        -3.5660000000         1.0520000000        -2.7350000000
   H        -3.0930000000         1.6760000000        -3.5180000000
   H        -3.2940000000         0.0020000000        -2.9050000000
   H        -4.6620000000         1.1370000000        -2.8480000000
   C        -2.3550000000         1.1900000000         2.2570000000
   H        -1.4060000000         0.6610000000         2.2900000000
   H        -2.2640000000         2.1210000000         2.8420000000
   H        -3.1360000000         0.5760000000         2.7480000000
   N        -1.0160000000        -0.1560000000        -1.9060000000
   N        -0.5350000000         0.0140000000        -2.9300000000
   H        -3.7280000000         3.5710000000        -0.7970000000
   H        -4.3700000000         2.8390000000         1.4780000000
   C        -1.2990000000        -1.8370000000         0.2170000000
   C        -0.7890000000        -2.8620000000        -0.8580000000
   C        -2.7740000000        -1.8970000000         0.7140000000
   C        -0.4630000000        -2.1740000000         1.5410000000
   H        -3.0430000000        -2.8790000000         1.1330000000
   H        -2.8530000000        -1.1600000000         1.5240000000
   H        -3.5080000000        -1.6140000000        -0.0500000000
   H         0.6160000000        -2.3460000000         1.3990000000
   H        -0.5610000000        -1.3840000000         2.2930000000
   H        -0.8770000000        -3.0960000000         1.9820000000
   H         0.2780000000        -2.6350000000        -1.0410000000
   H        -0.8530000000        -3.9110000000        -0.5160000000
   H        -1.3150000000        -2.8240000000        -1.8320000000
   C         1.5660000000         0.3310000000         0.5230000000
   O         0.6750000000         0.3520000000         1.2900000000
   O         2.4310000000         0.2590000000        -0.2660000000
