      36
best product-like step 813
   C        -2.3720000000         0.3420000000        -0.0230000000
   C        -3.4780000000         1.8000000000         1.4530000000
   H        -4.0770000000         1.6940000000         2.3640000000
   C        -4.3170000000         1.6810000000         0.1780000000
   H        -5.2600000000         1.1320000000         0.3350000000
   B        -1.2400000000        -0.5790000000        -0.6890000000
   N        -3.4050000000         0.9550000000        -0.7140000000
   N        -2.5050000000         0.7140000000         1.3230000000
   C        -3.7510000000         0.8060000000        -2.1160000000
   H        -3.5220000000        -0.2050000000        -2.4670000000
   H        -4.8210000000         0.9810000000        -2.2400000000
   H        -3.2100000000         1.5180000000        -2.7490000000
   C        -1.9490000000        -0.0120000000         2.4470000000
   H        -1.5240000000        -0.9400000000         2.0690000000
   H        -1.1570000000         0.5410000000         2.9670000000
   H        -2.7520000000        -0.2750000000         3.1470000000
   N        -0.6880000000        -0.1380000000        -1.9260000000
   N         0.0620000000         0.3390000000        -2.6720000000
   H        -4.5600000000         2.6820000000        -0.1950000000
   H        -3.0150000000         2.8050000000         1.4530000000
   C        -1.0300000000        -2.1930000000        -0.5200000000
   C        -0.7240000000        -2.7200000000        -1.9150000000
   C        -2.2800000000        -2.9370000000         0.0190000000
   C         0.3250000000        -2.4240000000         0.2550000000
   H        -2.1290000000        -4.0160000000         0.1670000000
   H        -2.6600000000        -2.5430000000         0.9730000000
   H        -3.1020000000        -2.8120000000        -0.7050000000
   H         1.0340000000        -1.7020000000        -0.1700000000
   H         0.2690000000        -2.2040000000         1.3280000000
   H         0.7370000000        -3.4350000000         0.0870000000
   H         0.2190000000        -2.3160000000        -2.2720000000
   H        -0.6150000000        -3.8120000000        -1.9380000000
   H        -1.5270000000        -2.4750000000        -2.6370000000
   C         0.3990000000         2.2120000000         0.5040000000
   O         0.5550000000         1.4300000000         1.3680000000
   O         0.2650000000         3.0030000000        -0.3510000000
