      27
final step 500
   C        -1.8890000000        -0.8900000000         0.8350000000
   C        -3.4100000000        -2.4070000000         1.8490000000
   H        -4.4760000000        -2.1500000000         1.7500000000
   C        -2.6540000000        -1.6320000000         2.9400000000
   H        -3.2420000000        -1.2760000000         3.7980000000
   B        -0.7440000000        -0.1510000000        -0.3290000000
   N        -2.1400000000        -0.4580000000         2.1660000000
   N        -2.6260000000        -2.0620000000         0.6450000000
   C        -1.1170000000         0.3310000000         2.9790000000
   H        -1.1650000000         1.4140000000         2.8210000000
   H        -1.3610000000         0.1660000000         4.0370000000
   H        -0.1000000000        -0.0220000000         2.7560000000
   C        -3.1510000000        -2.8320000000        -0.6110000000
   H        -4.1640000000        -3.1050000000        -0.2950000000
   H        -3.2290000000        -2.1290000000        -1.4440000000
   H        -2.6110000000        -3.7540000000        -0.8490000000
   N        -1.4360000000         4.0560000000        -2.6490000000
   N        -2.2950000000         3.9390000000        -3.3240000000
   H        -1.8140000000        -2.2370000000         3.3420000000
   H        -3.3330000000        -3.4790000000         2.0870000000
   C        -0.9820000000        -0.7910000000        -1.8890000000
   H        -0.3700000000        -1.5890000000        -2.3040000000
   H        -1.9830000000        -1.2070000000        -1.9630000000
   H        -0.9940000000         0.1540000000        -2.4530000000
   C         0.6690000000         2.8330000000        -0.2180000000
   O         0.0200000000         2.7840000000        -1.1380000000
   O        -0.3150000000         0.9250000000         0.1730000000
