      27
best bond-forming step 368
   C        -3.1190000000        -1.2540000000         1.1400000000
   C        -4.1200000000        -2.3980000000         3.0950000000
   H        -5.1880000000        -2.1850000000         3.2510000000
   C        -3.3730000000        -1.1010000000         3.5540000000
   H        -3.9880000000        -0.3120000000         4.0170000000
   B         0.0750000000        -1.6540000000        -1.8010000000
   N        -2.6980000000        -0.6230000000         2.2580000000
   N        -3.8180000000        -2.3950000000         1.5670000000
   C        -1.5240000000         0.3180000000         2.3610000000
   H        -1.2220000000         0.6740000000         1.3760000000
   H        -1.8680000000         1.1700000000         2.9620000000
   H        -0.6150000000        -0.1000000000         2.8180000000
   C        -3.8990000000        -3.5940000000         0.6900000000
   H        -4.1950000000        -3.3510000000        -0.3370000000
   H        -2.8500000000        -3.8880000000         0.5690000000
   H        -4.5010000000        -4.4100000000         1.1080000000
   N        -0.5330000000         3.6290000000        -2.3420000000
   N        -0.9750000000         4.1830000000        -3.1960000000
   H        -2.5830000000        -1.3320000000         4.2930000000
   H        -3.8360000000        -3.2710000000         3.6930000000
   C        -1.0430000000        -0.5700000000        -2.3010000000
   H        -1.7690000000        -0.4640000000        -1.4660000000
   H        -0.3710000000         0.3180000000        -2.3840000000
   H        -1.5230000000        -0.9890000000        -3.1860000000
   C         0.8050000000         5.0510000000        -1.0390000000
   O         0.8180000000         6.1690000000        -1.3010000000
   O         1.0850000000        -2.2980000000        -1.4950000000
