      27
final step 500
   C        -3.2270000000        -1.4470000000         1.4400000000
   C        -4.0870000000        -2.4490000000         3.4030000000
   H        -5.1660000000        -2.5690000000         3.6010000000
   C        -3.5970000000        -1.0420000000         3.6960000000
   H        -4.4390000000        -0.3670000000         3.9380000000
   B         0.3380000000        -1.8590000000        -2.5240000000
   N        -2.8510000000        -0.6790000000         2.5080000000
   N        -3.9920000000        -2.5050000000         1.9910000000
   C        -2.0660000000         0.5590000000         2.3970000000
   H        -2.0180000000         0.8030000000         1.3280000000
   H        -2.5330000000         1.3550000000         2.9860000000
   H        -1.0250000000         0.4840000000         2.7410000000
   C        -4.4410000000        -3.7240000000         1.2500000000
   H        -4.7490000000        -3.5160000000         0.2240000000
   H        -3.5620000000        -4.3440000000         1.0580000000
   H        -5.2410000000        -4.2650000000         1.7880000000
   N        -0.1080000000         3.5590000000        -2.0260000000
   N        -0.5300000000         3.5030000000        -3.0470000000
   H        -2.9120000000        -1.0180000000         4.5590000000
   H        -3.5090000000        -3.2020000000         3.9640000000
   C        -0.0620000000        -0.4190000000        -2.8040000000
   H        -0.3360000000         0.1940000000        -1.8990000000
   H         0.8050000000         0.0970000000        -3.3180000000
   H        -0.9640000000        -0.2660000000        -3.4230000000
   C         1.2660000000         6.6690000000        -0.9100000000
   O         0.5080000000         6.5070000000        -1.7230000000
   O         0.7680000000        -3.0640000000        -2.3640000000
