      27
best product-like step 224
   C        -2.4390000000        -1.2980000000         0.9280000000
   C        -3.9560000000        -2.2560000000         2.5270000000
   H        -4.8800000000        -1.7320000000         2.2000000000
   C        -3.0390000000        -1.3020000000         3.2810000000
   H        -3.6070000000        -0.4910000000         3.7730000000
   B        -0.1680000000        -0.9630000000        -1.1270000000
   N        -2.1730000000        -0.7340000000         2.1320000000
   N        -3.1850000000        -2.4580000000         1.2150000000
   C        -1.4660000000         0.5320000000         2.4410000000
   H        -1.4490000000         1.1930000000         1.5560000000
   H        -1.8840000000         1.0130000000         3.3310000000
   H        -0.4010000000         0.3440000000         2.6400000000
   C        -3.8170000000        -3.2820000000         0.0970000000
   H        -3.1270000000        -3.3100000000        -0.7450000000
   H        -3.9750000000        -4.3390000000         0.3780000000
   H        -4.7610000000        -2.7880000000        -0.1860000000
   N        -1.5330000000         3.4010000000        -3.2930000000
   N        -1.6090000000         4.4920000000        -3.3700000000
   H        -2.4000000000        -1.7660000000         4.0430000000
   H        -4.2340000000        -3.2040000000         3.0130000000
   C        -1.6020000000        -0.9330000000        -1.9350000000
   H        -1.9920000000        -1.9100000000        -1.6360000000
   H        -2.3760000000        -0.2420000000        -1.5960000000
   H        -1.5100000000        -1.0230000000        -3.0410000000
   C         0.7750000000         4.2860000000        -0.7590000000
   O         1.2970000000         5.2800000000        -0.5300000000
   O         0.7690000000        -1.2590000000        -0.4390000000
