      27
best product-like step 418
   C        -1.9820000000        -0.8190000000         0.9130000000
   C        -3.2630000000        -2.6750000000         1.7490000000
   H        -4.3600000000        -2.7480000000         1.7080000000
   C        -2.7650000000        -1.7940000000         2.9460000000
   H        -3.5210000000        -1.5390000000         3.7070000000
   B        -1.4020000000        -0.0950000000        -0.2860000000
   N        -1.9870000000        -0.6680000000         2.3150000000
   N        -2.8140000000        -1.8780000000         0.5580000000
   C        -1.1100000000         0.1620000000         3.1680000000
   H        -0.7180000000         0.9770000000         2.5500000000
   H        -1.7770000000         0.5830000000         3.9290000000
   H        -0.2840000000        -0.4340000000         3.5870000000
   C        -2.6810000000        -2.5300000000        -0.7000000000
   H        -3.6570000000        -2.5500000000        -1.2140000000
   H        -1.9850000000        -2.0340000000        -1.3850000000
   H        -2.3790000000        -3.5890000000        -0.5900000000
   N        -1.7430000000         4.6280000000        -2.5020000000
   N        -1.8460000000         3.5630000000        -2.7540000000
   H        -2.0250000000        -2.4330000000         3.4550000000
   H        -2.8130000000        -3.6780000000         1.7440000000
   C        -0.6260000000        -0.4030000000        -1.7050000000
   H         0.2060000000        -1.0610000000        -1.3780000000
   H        -1.1650000000        -0.8730000000        -2.5520000000
   H        -0.1640000000         0.4340000000        -2.2600000000
   C        -0.0730000000         2.1010000000        -0.6810000000
   O         0.0170000000         2.6490000000        -1.7130000000
   O        -0.2510000000         1.2840000000         0.1790000000
