      27
final step 500
   C        -2.0610000000        -0.8910000000         0.2290000000
   C        -2.2360000000        -2.7670000000         1.4460000000
   H        -2.9880000000        -3.5050000000         1.7770000000
   C        -2.1350000000        -1.6120000000         2.4470000000
   H        -2.8160000000        -1.7080000000         3.3040000000
   B        -1.5380000000        -0.1710000000        -0.8770000000
   N        -2.5590000000        -0.5030000000         1.5530000000
   N        -2.6440000000        -2.1850000000         0.2210000000
   C        -2.2530000000         0.7770000000         2.0950000000
   H        -1.1760000000         0.8760000000         2.3440000000
   H        -2.4710000000         1.5830000000         1.3800000000
   H        -2.8540000000         0.9900000000         2.9930000000
   C        -3.0720000000        -3.0530000000        -0.7460000000
   H        -3.5350000000        -2.4960000000        -1.5810000000
   H        -2.2410000000        -3.6680000000        -1.1790000000
   H        -3.8120000000        -3.7480000000        -0.3180000000
   N        -2.3620000000         3.5480000000        -1.2790000000
   N        -3.3460000000         3.9440000000        -1.5790000000
   H        -1.1020000000        -1.4740000000         2.8390000000
   H        -1.2660000000        -3.2960000000         1.3200000000
   C        -1.0260000000         0.0070000000        -2.3260000000
   H         0.0500000000         0.1800000000        -2.3320000000
   H        -1.2640000000        -0.8370000000        -2.9910000000
   H        -1.5450000000         0.8930000000        -2.7290000000
   C         0.8880000000         2.0810000000         0.0550000000
   O         0.5930000000         3.1880000000         0.2930000000
   O         1.1700000000         0.9850000000        -0.2860000000
