      27
best TS-like step 257
   C        -2.1900000000        -0.4150000000        -0.0940000000
   C        -1.8110000000        -2.3330000000         1.1840000000
   H        -2.5490000000        -3.1350000000         1.3620000000
   C        -1.9930000000        -1.1680000000         2.1410000000
   H        -2.7590000000        -1.3530000000         2.9090000000
   B        -2.4100000000         0.5830000000        -1.0530000000
   N        -2.4350000000        -0.1810000000         1.2310000000
   N        -2.0160000000        -1.7670000000        -0.1450000000
   C        -3.0310000000         0.9060000000         1.9010000000
   H        -2.3000000000         1.6430000000         2.2610000000
   H        -3.7600000000         1.4210000000         1.2680000000
   H        -3.5730000000         0.5160000000         2.7730000000
   C        -1.7280000000        -2.7260000000        -1.1250000000
   H        -1.6280000000        -2.3290000000        -2.1400000000
   H        -0.7940000000        -3.2450000000        -0.8680000000
   H        -2.5310000000        -3.4790000000        -1.1500000000
   N        -2.5470000000         2.6370000000        -0.4470000000
   N        -1.5870000000         3.1700000000        -0.1150000000
   H        -1.0610000000        -0.8850000000         2.6650000000
   H        -0.8060000000        -2.7760000000         1.2470000000
   C        -1.9110000000         0.6670000000        -2.4810000000
   H        -1.7540000000         1.6910000000        -2.8130000000
   H        -0.9220000000         0.1830000000        -2.5160000000
   H        -2.5520000000         0.1670000000        -3.2220000000
   C         0.3390000000         1.4260000000         0.0860000000
   O         0.1130000000         0.3330000000         0.4310000000
   O         0.5220000000         2.5050000000        -0.3300000000
