      27
best TS-like step 470
   C        -1.8750000000        -0.8750000000         0.9300000000
   C        -3.3010000000        -2.5070000000         1.8190000000
   H        -4.3690000000        -2.2690000000         1.7260000000
   C        -2.7030000000        -1.7130000000         2.9570000000
   H        -3.4160000000        -1.5320000000         3.7700000000
   B        -0.8120000000        -0.1900000000        -0.2170000000
   N        -2.1950000000        -0.5130000000         2.2340000000
   N        -2.6470000000        -1.8980000000         0.5880000000
   C        -1.1900000000         0.1770000000         3.0100000000
   H        -1.1090000000         1.2020000000         2.6440000000
   H        -1.5270000000         0.1230000000         4.0570000000
   H        -0.2160000000        -0.3300000000         2.8820000000
   C        -2.9820000000        -2.6360000000        -0.5620000000
   H        -4.0600000000        -2.8990000000        -0.5390000000
   H        -2.7830000000        -2.2450000000        -1.5520000000
   H        -2.4460000000        -3.6050000000        -0.4660000000
   N        -1.4480000000         4.2820000000        -2.5210000000
   N        -2.1670000000         3.7330000000        -3.1520000000
   H        -1.8240000000        -2.2370000000         3.3820000000
   H        -3.1600000000        -3.5990000000         1.7920000000
   C        -0.8560000000        -0.5920000000        -1.7500000000
   H         0.0030000000        -1.1830000000        -2.1210000000
   H        -1.8250000000        -0.9640000000        -2.1040000000
   H        -0.7840000000         0.2920000000        -2.3800000000
   C         0.3820000000         2.4680000000        -0.3570000000
   O        -0.0590000000         2.8010000000        -1.4000000000
   O        -0.3150000000         1.0420000000        -0.0250000000
