      27
best bond-forming step 461
   C        -1.8540000000        -0.8530000000         0.9410000000
   C        -3.2880000000        -2.5120000000         1.7830000000
   H        -4.3850000000        -2.3740000000         1.7390000000
   C        -2.6900000000        -1.7530000000         2.9330000000
   H        -3.4740000000        -1.4850000000         3.6620000000
   B        -0.8880000000        -0.1460000000        -0.1950000000
   N        -2.1950000000        -0.5540000000         2.2400000000
   N        -2.6690000000        -1.8650000000         0.6310000000
   C        -1.1990000000         0.1430000000         3.0250000000
   H        -1.0920000000         1.1470000000         2.6040000000
   H        -1.5620000000         0.2290000000         4.0510000000
   H        -0.2500000000        -0.4000000000         2.9210000000
   C        -2.9460000000        -2.6100000000        -0.5690000000
   H        -3.9960000000        -2.9050000000        -0.6510000000
   H        -2.5500000000        -2.1410000000        -1.4750000000
   H        -2.4220000000        -3.5640000000        -0.3970000000
   N        -1.4670000000         4.3660000000        -2.4940000000
   N        -2.1250000000         3.6670000000        -3.0980000000
   H        -1.8810000000        -2.2610000000         3.4950000000
   H        -3.0370000000        -3.5800000000         1.7750000000
   C        -0.8100000000        -0.5410000000        -1.7170000000
   H         0.0700000000        -1.1570000000        -1.9690000000
   H        -1.7070000000        -0.9390000000        -2.2320000000
   H        -0.6870000000         0.4440000000        -2.2380000000
   C         0.2840000000         2.3750000000        -0.4320000000
   O        -0.0530000000         2.8240000000        -1.4760000000
   O        -0.3210000000         1.0190000000        -0.0290000000
