      27
best bond-forming step 303
   C        -2.4910000000        -0.5430000000         0.0340000000
   C        -1.7910000000        -2.5110000000         1.3300000000
   H        -2.4210000000        -3.3260000000         1.7170000000
   C        -1.8570000000        -1.2350000000         2.2390000000
   H        -2.3670000000        -1.4530000000         3.1910000000
   B        -2.0520000000         0.4050000000        -1.0980000000
   N        -2.5960000000        -0.2300000000         1.4580000000
   N        -2.3180000000        -2.0240000000         0.0050000000
   C        -2.9000000000         1.1120000000         2.0730000000
   H        -2.0510000000         1.8060000000         2.0460000000
   H        -3.7220000000         1.5780000000         1.5170000000
   H        -3.2180000000         0.9810000000         3.1180000000
   C        -1.9620000000        -2.7540000000        -1.3020000000
   H        -2.1560000000        -2.0710000000        -2.1350000000
   H        -0.9100000000        -3.0740000000        -1.3520000000
   H        -2.6230000000        -3.6140000000        -1.4550000000
   N        -2.5960000000         2.6280000000        -0.7670000000
   N        -1.6990000000         3.0650000000        -0.2790000000
   H        -0.8280000000        -0.9110000000         2.4870000000
   H        -0.7580000000        -2.8840000000         1.2440000000
   C        -1.8730000000         0.5110000000        -2.7290000000
   H        -1.5940000000         1.5050000000        -3.0780000000
   H        -1.1740000000        -0.1860000000        -3.2110000000
   H        -2.8810000000         0.3110000000        -3.1410000000
   C         0.4330000000         1.7450000000         0.1030000000
   O        -0.2720000000         0.8370000000         0.3130000000
   O         1.2810000000         2.4950000000        -0.1380000000
