      27
best TS-like step 1
   C        -1.8890000000        -0.8910000000         0.8320000000
   C        -3.4140000000        -2.4030000000         1.8500000000
   H        -4.4810000000        -2.1440000000         1.7510000000
   C        -2.6500000000        -1.6290000000         2.9360000000
   H        -3.2420000000        -1.2650000000         3.7890000000
   B        -0.7480000000        -0.1490000000        -0.3350000000
   N        -2.1350000000        -0.4580000000         2.1620000000
   N        -2.6260000000        -2.0680000000         0.6500000000
   C        -1.1140000000         0.3370000000         2.9780000000
   H        -1.1730000000         1.4180000000         2.8150000000
   H        -1.3600000000         0.1710000000         4.0340000000
   H        -0.1000000000        -0.0130000000         2.7440000000
   C        -3.1580000000        -2.8360000000        -0.6110000000
   H        -4.1670000000        -3.1280000000        -0.2990000000
   H        -3.2370000000        -2.1230000000        -1.4340000000
   H        -2.6130000000        -3.7540000000        -0.8550000000
   N        -1.4380000000         4.0490000000        -2.6550000000
   N        -2.2980000000         3.9460000000        -3.3290000000
   H        -1.8170000000        -2.2370000000         3.3490000000
   H        -3.3340000000        -3.4720000000         2.0930000000
   C        -0.9840000000        -0.7980000000        -1.8910000000
   H        -0.3700000000        -1.5950000000        -2.3020000000
   H        -1.9950000000        -1.2010000000        -1.9660000000
   H        -1.0000000000         0.1470000000        -2.4640000000
   C         0.6780000000         2.8470000000        -0.2150000000
   O         0.0240000000         2.7850000000        -1.1310000000
   O        -0.3150000000         0.9160000000         0.1830000000
