      27
best product-like step 239
   C        -2.2210000000        -0.3590000000        -0.0870000000
   C        -1.7970000000        -2.3400000000         1.1490000000
   H        -2.5750000000        -3.1200000000         1.2000000000
   C        -2.0270000000        -1.2100000000         2.1170000000
   H        -2.8470000000        -1.4380000000         2.8230000000
   B        -2.5380000000         0.7240000000        -1.0980000000
   N        -2.4090000000        -0.1530000000         1.2530000000
   N        -1.8430000000        -1.6830000000        -0.1460000000
   C        -3.1180000000         0.9190000000         1.8280000000
   H        -2.4350000000         1.6400000000         2.3040000000
   H        -3.7180000000         1.4230000000         1.0630000000
   H        -3.7940000000         0.5350000000         2.6110000000
   C        -1.6250000000        -2.7150000000        -1.1320000000
   H        -1.5040000000        -2.3480000000        -2.1530000000
   H        -0.7190000000        -3.2710000000        -0.8440000000
   H        -2.4680000000        -3.4240000000        -1.1060000000
   N        -2.4960000000         2.5910000000        -0.3300000000
   N        -1.6680000000         3.2890000000        -0.0260000000
   H        -1.1330000000        -0.9760000000         2.7130000000
   H        -0.8240000000        -2.8300000000         1.3060000000
   C        -1.8800000000         0.7490000000        -2.4720000000
   H        -1.8470000000         1.7630000000        -2.8900000000
   H        -0.8550000000         0.3340000000        -2.4900000000
   H        -2.4440000000         0.1390000000        -3.2000000000
   C         0.3540000000         1.2740000000        -0.0110000000
   O         0.3590000000         0.2110000000         0.5090000000
   O         0.2180000000         2.3960000000        -0.3820000000
