      39
final step 1000
   C        -3.1150000000         0.1480000000        -0.4430000000
   C        -5.2720000000         1.1290000000        -0.5610000000
   H        -5.7620000000         0.4330000000         0.1450000000
   C        -5.0190000000         0.3780000000        -1.8830000000
   H        -5.7920000000        -0.2510000000        -2.3390000000
   B        -1.5550000000        -0.2790000000        -0.1950000000
   N        -3.9580000000        -0.5280000000        -1.3000000000
   N        -3.8310000000         1.3470000000        -0.2010000000
   C        -3.6430000000        -1.7290000000        -2.0410000000
   H        -4.5150000000        -2.3990000000        -1.9880000000
   H        -3.4120000000        -1.5140000000        -3.0910000000
   H        -2.8000000000        -2.2390000000        -1.6080000000
   C        -3.5230000000         2.2190000000         0.8920000000
   H        -2.4520000000         2.4550000000         0.9050000000
   H        -4.0510000000         3.1570000000         0.7280000000
   H        -3.7940000000         1.8500000000         1.8980000000
   N        -0.9380000000         0.9430000000        -0.4680000000
   N        -0.6160000000         2.0350000000        -0.5840000000
   H        -4.6020000000         1.0710000000        -2.6410000000
   H        -5.7910000000         2.0890000000        -0.5740000000
   C        -0.5910000000        -1.6140000000        -0.1940000000
   C         0.1890000000        -1.7270000000        -1.5690000000
   C        -1.4640000000        -2.8460000000         0.2050000000
   C         0.5280000000        -1.3690000000         0.9320000000
   H        -0.8200000000        -3.5710000000         0.7030000000
   H        -2.2620000000        -2.5100000000         0.8910000000
   H        -1.9460000000        -3.3690000000        -0.6270000000
   H         1.1810000000        -0.5710000000         0.5740000000
   H         0.1190000000        -0.9820000000         1.8970000000
   H         1.1560000000        -2.2480000000         1.1200000000
   H         0.7110000000        -0.7750000000        -1.7370000000
   H         0.9290000000        -2.5320000000        -1.5070000000
   H        -0.4970000000        -1.9060000000        -2.4180000000
   C         2.3460000000         1.5060000000         1.9510000000
   C         3.4390000000         1.7050000000         2.8760000000
   H         3.2880000000         0.9580000000         3.6690000000
   H         4.4540000000         1.5190000000         2.4660000000
   H         3.4190000000         2.7160000000         3.2810000000
   N         1.2750000000         1.4610000000         1.5110000000
