      39
best bond-forming step 77
   C        -2.7150000000         0.7980000000        -0.2910000000
   C        -4.4630000000         2.1210000000         0.4260000000
   H        -5.4570000000         1.6740000000         0.3280000000
   C        -3.9310000000         2.5850000000        -0.9490000000
   H        -4.7370000000         2.8500000000        -1.6330000000
   B        -1.4870000000        -0.1660000000        -0.2010000000
   N        -3.1830000000         1.4240000000        -1.4240000000
   N        -3.4750000000         1.1180000000         0.8080000000
   C        -2.8780000000         1.2060000000        -2.8750000000
   H        -1.9550000000         1.7000000000        -3.1770000000
   H        -2.7750000000         0.1400000000        -3.0720000000
   H        -3.7270000000         1.5720000000        -3.4490000000
   C        -2.9580000000         0.9620000000         2.1640000000
   H        -2.0520000000         0.3620000000         2.1190000000
   H        -2.6890000000         1.9320000000         2.5900000000
   H        -3.6860000000         0.4520000000         2.7970000000
   N        -0.8750000000         0.0070000000        -1.5030000000
   N        -0.1260000000         0.3240000000        -2.3460000000
   H        -3.2610000000         3.4430000000        -0.8200000000
   H        -4.5010000000         2.9250000000         1.1650000000
   C        -1.6690000000        -1.6680000000         0.5200000000
   C        -1.4260000000        -2.7140000000        -0.6430000000
   C        -3.1460000000        -1.8830000000         1.0060000000
   C        -0.5450000000        -1.7290000000         1.6050000000
   H        -3.3140000000        -2.9180000000         1.3200000000
   H        -3.4260000000        -1.2670000000         1.8560000000
   H        -3.8470000000        -1.6580000000         0.1960000000
   H         0.4480000000        -1.5500000000         1.1650000000
   H        -0.6510000000        -0.9270000000         2.3380000000
   H        -0.4720000000        -2.6850000000         2.1440000000
   H        -0.4740000000        -2.5490000000        -1.1600000000
   H        -1.4210000000        -3.7550000000        -0.2960000000
   H        -2.2160000000        -2.6110000000        -1.3930000000
   C         2.6410000000         0.0720000000         1.0190000000
   C         2.4120000000         0.0110000000        -0.4260000000
   H         1.4510000000         0.4840000000        -0.6410000000
   H         3.1680000000         0.5360000000        -1.0160000000
   H         2.3380000000        -1.0210000000        -0.8040000000
   N         2.4500000000         0.2020000000         2.1780000000
