      39
best product-like step 137
   C        -2.6430000000         0.7600000000        -0.3350000000
   C        -4.4750000000         1.9940000000         0.4190000000
   H        -5.3520000000         1.3230000000         0.3470000000
   C        -4.1080000000         2.4980000000        -0.9690000000
   H        -4.9620000000         2.6020000000        -1.6500000000
   B        -1.4570000000        -0.2350000000        -0.4370000000
   N        -3.3020000000         1.3640000000        -1.3680000000
   N        -3.2660000000         1.2290000000         0.7920000000
   C        -3.0790000000         1.1140000000        -2.7550000000
   H        -2.2660000000         1.7360000000        -3.1610000000
   H        -2.8300000000         0.0690000000        -2.9170000000
   H        -4.0090000000         1.3580000000        -3.2830000000
   C        -2.8870000000         1.1870000000         2.1750000000
   H        -1.9800000000         0.6070000000         2.3330000000
   H        -2.7310000000         2.2160000000         2.5460000000
   H        -3.7150000000         0.7460000000         2.7500000000
   N        -0.7250000000         0.0650000000        -1.6500000000
   N        -0.3800000000         0.3710000000        -2.6900000000
   H        -3.5290000000         3.4450000000        -0.9640000000
   H        -4.6760000000         2.7600000000         1.1740000000
   C        -1.3840000000        -1.5450000000         0.5120000000
   C        -1.1440000000        -2.6650000000        -0.5290000000
   C        -2.7670000000        -1.9170000000         1.0680000000
   C        -0.4180000000        -1.9280000000         1.6510000000
   H        -2.7970000000        -3.0120000000         1.1360000000
   H        -2.9210000000        -1.5470000000         2.0850000000
   H        -3.6080000000        -1.5880000000         0.4330000000
   H         0.5950000000        -2.1000000000         1.3490000000
   H        -0.3490000000        -1.2330000000         2.4850000000
   H        -0.7850000000        -2.9000000000         2.0500000000
   H        -0.1620000000        -2.6340000000        -0.9880000000
   H        -1.2270000000        -3.6540000000        -0.0330000000
   H        -1.8960000000        -2.6380000000        -1.3340000000
   C         2.0250000000         0.2240000000         1.0720000000
   C         3.1950000000         0.0590000000        -0.0510000000
   H         2.9420000000         0.5330000000        -1.0080000000
   H         4.1150000000         0.4780000000         0.4080000000
   H         3.3610000000        -1.0070000000        -0.1880000000
   N         1.2680000000         0.1950000000         1.9940000000
