      39
best TS-like step 168
   C        -2.6790000000         0.7700000000        -0.3330000000
   C        -4.4570000000         1.9440000000         0.4730000000
   H        -5.2360000000         1.1680000000         0.4710000000
   C        -4.2210000000         2.4350000000        -0.9400000000
   H        -5.1580000000         2.4730000000        -1.5040000000
   B        -1.4390000000        -0.1750000000        -0.4120000000
   N        -3.3250000000         1.3580000000        -1.4170000000
   N        -3.1860000000         1.3390000000         0.8070000000
   C        -3.2430000000         1.0780000000        -2.8430000000
   H        -2.5110000000         1.6900000000        -3.3740000000
   H        -2.9690000000         0.0280000000        -3.0020000000
   H        -4.2370000000         1.1940000000        -3.2790000000
   C        -2.8170000000         1.3070000000         2.2180000000
   H        -1.8800000000         0.7540000000         2.3390000000
   H        -2.6430000000         2.3320000000         2.5530000000
   H        -3.5940000000         0.8280000000         2.8260000000
   N        -0.8340000000         0.0600000000        -1.7070000000
   N        -0.4010000000         0.3200000000        -2.7310000000
   H        -3.7390000000         3.4190000000        -0.9640000000
   H        -4.7350000000         2.7250000000         1.1840000000
   C        -1.2810000000        -1.6550000000         0.4000000000
   C        -0.9280000000        -2.7670000000        -0.6030000000
   C        -2.6540000000        -1.8940000000         1.1230000000
   C        -0.3930000000        -2.0310000000         1.6410000000
   H        -2.7880000000        -2.9610000000         1.3450000000
   H        -2.6930000000        -1.3760000000         2.0910000000
   H        -3.5460000000        -1.5890000000         0.5780000000
   H         0.6750000000        -2.2500000000         1.3780000000
   H        -0.4180000000        -1.2880000000         2.4410000000
   H        -0.8180000000        -2.9670000000         1.9950000000
   H         0.0870000000        -2.5970000000        -1.0180000000
   H        -0.8980000000        -3.7320000000        -0.0940000000
   H        -1.6160000000        -2.8430000000        -1.4500000000
   C         1.9430000000         0.2260000000         0.9660000000
   C         3.3960000000         0.1340000000         0.5850000000
   H         3.5980000000         0.6520000000        -0.3620000000
   H         4.0380000000         0.5790000000         1.3440000000
   H         3.6790000000        -0.9190000000         0.3890000000
   N         0.9250000000         0.3210000000         1.5720000000
